NAME: critino
TYPE: TSP
DIMENSION: 1000
EDGE_WEIGHT_TYPE: EUC_2D
NODE_COORD_SECTION
0 194.1851 159.5419
1 245.8729 374.7322
2 83.8066 308.6588
3 11.6923 260.8492
4 208.2497 66.4894
5 206.2212 66.9877
6 120.9441 37.0394
7 9.7056 349.9252
8 292.1806 260.5679
9 205.9155 299.0339
10 162.6974 18.2973
11 286.9244 380.9711
12 205.9443 339.4742
13 46.8620 86.8445
14 97.3191 74.8289
15 240.0370 74.5963
16 56.2300 132.1206
17 93.0770 229.6963
18 62.3399 179.7248
19 193.0654 125.3153
20 260.5395 264.7907
21 298.3188 61.6259
22 11.8860 126.6159
23 271.2330 156.0244
24 72.8701 191.0213
25 289.8747 325.5289
26 217.9391 80.7988
27 134.9979 224.3507
28 204.7672 257.4019
29 188.4799 32.6275
30 61.8737 263.9841
31 262.7683 70.4178
32 217.4214 39.7376
33 43.2388 374.1105
34 176.3546 379.2872
35 285.2963 332.2336
36 146.0421 132.0179
37 94.9877 50.4278
38 46.3843 291.6796
39 9.2183 183.9500
40 87.7863 57.0894
41 13.4176 214.8791
42 298.9447 26.4674
43 154.6134 361.1670
44 19.9912 109.2317
45 173.9427 283.6496
46 23.6077 136.5127
47 60.2307 227.1765
48 116.2205 238.1864
49 87.7796 75.3501
50 259.0578 380.9691
51 251.8838 322.9278
52 30.9949 371.1739
53 43.3962 357.7582
54 251.6960 259.1539
55 111.8158 365.2244
56 158.2238 47.5370
57 71.5929 79.5801
58 101.0915 32.8775
59 129.2656 142.1295
60 125.8887 164.9557
61 97.8621 115.8095
62 194.6552 338.5509
63 201.0870 153.4085
64 52.3727 120.2598
65 194.7234 236.4959
66 145.0810 62.2202
67 24.6833 331.0761
68 47.8512 43.4951
69 64.4806 386.5924
70 277.8247 321.3478
71 79.6780 80.5657
72 254.2670 4.8786
73 294.7974 334.6585
74 47.8506 299.8673
75 61.7084 307.8370
76 158.6975 321.6801
77 267.6186 42.7527
78 61.1586 154.8809
79 156.8718 55.0292
80 40.8258 348.1289
81 218.3351 268.7435
82 230.1608 144.8180
83 113.8321 39.5075
84 268.0064 135.2870
85 115.6169 142.9812
86 133.6318 307.2598
87 3.6340 274.5400
88 297.7798 354.1070
89 230.7610 200.5413
90 162.9630 56.3419
91 149.6326 301.9320
92 39.1025 318.9372
93 230.6879 244.0678
94 126.3010 321.7082
95 60.0674 213.5822
96 140.3459 228.6209
97 120.0457 177.8715
98 188.9735 21.9689
99 93.7497 53.1301
100 135.7583 25.0246
101 166.0221 273.3236
102 117.4886 137.7704
103 161.6833 221.4459
104 5.2736 361.9971
105 44.4262 104.4514
106 137.1636 171.7948
107 106.6937 316.2208
108 266.0824 93.6805
109 259.6545 43.2733
110 278.9509 124.1511
111 79.4323 68.9436
112 285.4197 367.6385
113 257.3976 332.2742
114 122.9840 272.4093
115 144.8941 350.2300
116 147.2131 331.0311
117 255.6517 75.3685
118 151.8644 356.4732
119 59.9682 235.1855
120 182.8686 332.7766
121 161.7709 357.8448
122 43.7610 139.6262
123 248.1312 53.0325
124 102.9208 93.6167
125 73.7965 177.4815
126 195.1173 335.1252
127 147.6856 347.4303
128 88.2005 6.4916
129 219.0642 222.5820
130 235.2690 173.7976
131 227.3104 90.4552
132 181.0116 56.0724
133 56.3925 147.4799
134 55.6000 372.2917
135 169.6950 141.8601
136 189.7799 226.0396
137 264.4805 297.1049
138 291.2420 155.9867
139 146.1425 381.4989
140 167.6182 378.7025
141 142.5596 105.0098
142 55.3265 215.5177
143 183.0879 130.3506
144 55.0332 122.0786
145 129.3969 28.1327
146 1.5675 264.6895
147 78.8006 218.2002
148 197.1675 34.1046
149 20.6364 119.7065
150 49.0316 361.9362
151 34.0520 99.5413
152 173.7091 63.8710
153 272.7141 210.8017
154 267.3395 385.8148
155 108.0801 100.8948
156 5.5476 287.8173
157 110.4523 318.6436
158 39.5264 98.7316
159 0.0816 307.0604
160 110.2471 157.1595
161 5.8718 272.2192
162 134.9759 272.3369
163 225.1821 233.7897
164 295.6587 47.4982
165 147.5554 340.7192
166 132.2285 140.9963
167 248.9748 75.6503
168 109.1995 30.6802
169 12.0722 257.0307
170 279.2577 288.4626
171 111.8683 15.7272
172 109.7427 223.4255
173 247.3459 92.3710
174 297.9876 276.0401
175 295.8670 71.5787
176 159.4386 293.7253
177 230.4867 163.8734
178 54.9007 370.4217
179 156.2768 61.5924
180 119.9124 148.2107
181 236.6230 54.6316
182 73.7331 366.1316
183 37.7158 352.9090
184 241.1797 108.2375
185 193.9714 282.1810
186 130.8544 335.4923
187 16.2472 242.8707
188 87.4453 231.5148
189 66.3592 100.5930
190 254.1635 48.3911
191 279.9694 357.2581
192 265.6567 358.3252
193 75.7735 272.1309
194 216.9698 147.4538
195 32.2361 151.0735
196 39.1698 306.5198
197 269.3370 357.8289
198 286.4309 354.2487
199 62.6171 324.7068
200 245.1670 275.1676
201 81.0367 46.7364
202 106.6638 68.4746
203 71.8442 358.8057
204 276.5854 262.8683
205 108.2058 8.1119
206 123.2697 51.0571
207 286.5312 283.9366
208 151.0393 4.1221
209 24.4522 68.9339
210 74.3162 239.5072
211 270.0416 293.1483
212 186.9866 279.9651
213 235.0049 91.9518
214 31.6391 301.8679
215 292.4547 97.5156
216 138.4888 142.6669
217 88.1397 313.0300
218 229.3079 278.7047
219 100.2019 344.6734
220 245.9699 281.0939
221 235.6726 247.4438
222 296.8681 48.1771
223 103.6926 157.8381
224 60.9446 112.6832
225 112.4972 101.6178
226 279.8689 381.5706
227 270.0304 165.9309
228 105.6895 356.6765
229 166.2157 271.6589
230 275.3939 328.6512
231 70.1066 218.6578
232 89.9994 251.0482
233 163.9772 212.4069
234 281.8708 78.7824
235 277.5670 304.7384
236 34.8785 120.4041
237 19.3270 21.6676
238 19.8078 277.7623
239 252.7978 72.4356
240 116.8178 371.1202
241 258.5445 375.0058
242 54.3246 363.3665
243 38.3962 158.6955
244 74.3886 14.4487
245 133.2375 367.3733
246 205.2273 177.0732
247 279.6034 379.6682
248 289.6195 378.4635
249 112.3798 345.8633
250 41.5191 127.4792
251 71.0256 163.3412
252 266.3802 344.3988
253 245.5802 138.5336
254 183.6079 70.7649
255 252.8130 242.7181
256 11.9555 370.0182
257 79.1958 295.0076
258 136.6475 248.8980
259 19.2435 50.9270
260 279.0603 265.9344
261 53.3516 387.1014
262 87.4859 62.2568
263 132.2849 226.3073
264 39.8030 352.5392
265 97.3113 311.6103
266 202.7162 295.2726
267 196.4135 297.1219
268 172.1811 154.6811
269 274.1814 126.5252
270 46.7090 333.1069
271 115.5673 333.2566
272 68.9629 349.4835
273 230.8060 362.5502
274 3.0434 223.6332
275 217.9514 217.6016
276 287.8192 329.8842
277 270.2281 278.2120
278 123.6110 297.4110
279 41.8399 329.9000
280 239.3534 355.2369
281 106.7805 147.2748
282 6.8226 160.4237
283 74.6675 49.0955
284 290.6239 251.4518
285 203.5866 27.1680
286 267.7369 196.8628
287 186.2167 236.0957
288 29.0236 123.6420
289 8.6071 257.5467
290 198.2319 24.3909
291 164.5945 28.4968
292 299.9878 336.1364
293 237.6951 154.4043
294 180.4282 58.7176
295 59.6924 228.9913
296 39.1284 321.1041
297 246.7243 87.5784
298 170.2742 268.0794
299 163.0857 46.8942
300 216.1919 34.3234
301 295.2267 231.3550
302 241.0694 235.5191
303 294.0676 273.8004
304 49.2337 306.5400
305 250.8801 382.6509
306 137.5330 225.3243
307 124.3330 141.6695
308 2.9941 329.6618
309 26.5578 115.7307
310 141.4652 182.0601
311 129.5623 44.9576
312 182.1753 21.6900
313 200.2009 378.5358
314 196.0967 340.4504
315 71.7562 295.3476
316 4.6649 171.7954
317 215.9272 71.2346
318 241.3993 66.1524
319 252.9925 104.9270
320 148.5400 239.8420
321 4.5210 302.6236
322 225.0891 282.7553
323 270.1277 119.8261
324 29.7820 376.7087
325 100.0362 310.3031
326 226.2631 241.3601
327 237.0876 264.9370
328 152.5538 174.3055
329 85.3970 103.4472
330 126.6006 153.5157
331 44.9194 317.4970
332 62.9922 13.8514
333 170.2085 55.9306
334 158.1164 32.8174
335 106.3806 30.8780
336 17.8681 346.8059
337 14.7900 298.3047
338 290.0809 201.4030
339 109.1735 50.6950
340 7.3461 212.9756
341 139.6410 201.8225
342 209.1325 71.8620
343 16.9228 180.4871
344 192.6063 167.7648
345 42.1748 266.5026
346 15.3987 273.1464
347 107.3675 32.0682
348 200.0258 159.1352
349 190.9631 269.5495
350 184.9658 218.4325
351 100.3118 346.5061
352 34.4395 282.1057
353 203.6408 68.2160
354 203.6196 41.6502
355 282.1520 275.0613
356 151.7808 22.4598
357 3.0582 255.9949
358 92.0578 371.6950
359 243.9837 250.2392
360 79.1422 164.1214
361 48.3033 276.1010
362 167.6922 192.0623
363 289.5094 237.9967
364 239.8140 371.6152
365 162.3063 163.6239
366 38.5270 378.4261
367 85.1307 360.8866
368 57.4498 79.1946
369 119.3678 41.4141
370 68.8275 51.7336
371 187.7693 16.0110
372 111.4162 49.4813
373 246.0192 290.2598
374 274.7603 41.1371
375 224.5353 139.2152
376 37.0121 343.2412
377 140.9759 20.8015
378 192.9596 334.4879
379 268.1097 120.5480
380 67.4544 56.8444
381 168.0981 295.4882
382 249.1500 270.3247
383 45.7374 352.4760
384 108.3759 309.3945
385 130.4594 331.7850
386 282.8921 120.9553
387 276.7869 72.3154
388 250.6881 314.4376
389 127.2547 332.8409
390 91.0384 387.9018
391 54.4615 172.6372
392 241.6594 158.8951
393 46.6367 323.6139
394 98.0667 148.5184
395 64.1502 368.7374
396 269.5122 346.6802
397 2.0417 178.0848
398 268.7163 314.0721
399 23.0713 316.0121
400 235.9565 51.7375
401 142.3533 359.2965
402 262.3497 219.7747
403 17.6614 338.1852
404 30.1741 140.0984
405 112.6603 357.7644
406 180.2650 164.0209
407 212.0822 9.9679
408 89.2954 360.7692
409 123.6247 48.3819
410 275.2057 139.1214
411 166.6150 374.7746
412 235.6439 374.5303
413 287.0420 249.9685
414 270.7987 271.2928
415 42.9800 187.6019
416 203.5824 126.7481
417 276.8118 143.6565
418 34.1281 287.3383
419 86.9281 315.2246
420 281.3722 327.4321
421 69.4394 327.6129
422 118.9431 48.2407
423 199.1215 213.1975
424 77.8869 37.6458
425 189.2859 239.8159
426 231.8614 183.8465
427 27.9189 355.2522
428 214.7550 151.4605
429 239.8420 55.7285
430 294.7764 62.6562
431 99.1774 318.5450
432 296.9847 266.9374
433 96.0432 51.1648
434 78.1317 46.7260
435 20.8178 297.2135
436 157.5059 42.8407
437 230.7328 336.5422
438 299.5903 298.5084
439 110.2975 45.5650
440 127.6889 46.8733
441 45.6363 386.7611
442 165.1601 159.4616
443 103.0093 158.2467
444 46.7265 334.9918
445 206.0992 373.4015
446 299.8001 385.2040
447 217.5551 315.7331
448 74.6160 160.1880
449 275.3554 45.7838
450 111.5542 323.0052
451 138.7610 243.0353
452 35.7457 176.2025
453 177.9581 360.3679
454 81.3269 54.1489
455 187.3056 212.8767
456 110.9963 10.3683
457 181.4486 198.7221
458 179.8862 36.5930
459 110.3915 56.4126
460 273.6956 55.0032
461 164.6196 278.3555
462 49.7942 313.0930
463 6.5882 254.4810
464 131.6423 378.0649
465 230.5800 159.5615
466 261.5607 122.6035
467 194.6765 349.8050
468 90.2698 91.8250
469 255.4983 378.0771
470 7.0586 11.3342
471 283.7849 380.7077
472 119.7886 31.5173
473 26.4402 356.1475
474 155.3282 230.4340
475 17.0886 388.2206
476 233.5982 42.7357
477 148.9983 241.9331
478 232.6426 380.4212
479 172.6362 228.7857
480 289.1183 270.4099
481 49.8398 295.3838
482 129.5719 190.5878
483 55.1845 270.3622
484 101.3345 254.0262
485 19.0242 359.8317
486 116.2731 32.5181
487 56.2987 120.9407
488 218.2593 374.4297
489 263.8727 355.8419
490 11.1861 191.8026
491 186.4582 267.4830
492 125.1335 118.0806
493 109.7279 76.4965
494 221.4369 195.7295
495 157.7655 152.1589
496 27.6102 254.1354
497 80.7514 44.6570
498 87.9566 382.0690
499 14.0571 386.2822
500 18.2617 296.2470
501 282.9063 233.2495
502 6.2719 135.7594
503 135.4497 334.7767
504 105.0654 291.4876
505 180.0336 68.0627
506 9.9064 362.1392
507 295.5324 336.4111
508 132.3473 374.8998
509 20.0218 306.6638
510 97.9634 265.5602
511 17.9368 174.0523
512 282.4188 368.2602
513 2.7308 349.9813
514 101.2565 32.6542
515 140.1981 22.5653
516 99.4639 160.9720
517 152.6085 333.3495
518 101.1141 386.1512
519 64.2253 65.2510
520 69.8506 258.5612
521 248.5234 161.1148
522 286.8601 380.7228
523 113.0677 342.7078
524 99.5435 341.0817
525 188.4583 198.4847
526 286.1658 172.9457
527 114.8500 116.6690
528 184.4623 36.4118
529 174.6510 348.5454
530 52.0623 334.5125
531 275.8064 389.4592
532 24.0520 389.7863
533 33.2014 242.2586
534 263.1647 320.3302
535 262.7568 372.5194
536 134.2049 344.8778
537 42.8796 103.8706
538 67.2388 188.4512
539 80.9850 59.7720
540 269.0272 375.0652
541 257.4639 262.9092
542 249.5387 93.4978
543 271.1055 286.6568
544 290.8221 266.3804
545 27.7756 154.9645
546 245.2038 54.5233
547 262.2871 286.7929
548 106.5776 227.6346
549 282.7979 321.3960
550 76.9151 227.5330
551 38.1580 345.6959
552 200.7933 240.3168
553 173.8572 244.9061
554 294.2769 351.9835
555 72.1407 169.2020
556 161.1842 60.8940
557 212.6543 23.1521
558 61.4403 316.6153
559 201.0835 267.8824
560 47.8036 298.5052
561 113.9671 86.4178
562 76.9841 61.6679
563 117.6347 13.1660
564 188.8819 151.4275
565 212.1622 256.0126
566 172.5598 165.5274
567 238.7194 181.8903
568 298.0794 359.7315
569 248.1874 150.8582
570 89.8191 224.5408
571 123.7102 325.3144
572 1.4712 167.8216
573 74.4593 268.3578
574 294.4942 347.8282
575 104.3352 374.1738
576 79.7120 64.8260
577 284.1006 366.2399
578 70.1420 212.3479
579 275.4504 108.7488
580 9.6511 193.6209
581 30.3524 384.8414
582 186.4713 212.9791
583 283.6341 143.1263
584 122.6762 272.3251
585 115.6863 99.0696
586 165.1749 43.8557
587 60.2272 59.8370
588 252.2793 58.6429
589 167.6942 65.5127
590 250.3053 61.2126
591 63.0332 275.3039
592 102.6532 74.9383
593 292.8712 149.7661
594 238.7884 357.6650
595 260.2603 201.9072
596 112.6707 285.5604
597 142.1110 71.4471
598 259.4604 77.8646
599 116.5466 30.3804
600 141.9768 70.1107
601 16.4225 119.0420
602 244.7399 72.9181
603 172.2800 47.8583
604 234.2922 56.9108
605 2.7540 194.8049
606 116.0180 83.9628
607 41.7267 156.3048
608 255.8294 218.2815
609 89.8728 293.1126
610 161.7037 29.5407
611 59.0965 330.2419
612 105.0124 270.4688
613 137.3013 45.5984
614 24.2972 351.2999
615 24.7432 365.0481
616 137.9029 38.8523
617 36.6678 118.5932
618 64.8923 332.1853
619 296.0790 313.2395
620 64.7946 75.0347
621 256.5828 84.9954
622 81.8557 158.5214
623 297.0636 207.8314
624 299.5990 266.1149
625 213.0939 157.9096
626 4.6692 195.8293
627 223.8790 313.5718
628 111.5174 28.4304
629 278.3169 105.4346
630 165.7739 301.6019
631 76.8925 357.4434
632 33.6071 223.6313
633 78.5917 232.7026
634 288.2374 52.5124
635 211.1042 186.3845
636 149.4877 232.6522
637 235.9505 100.6007
638 70.7436 114.5063
639 173.6341 160.0709
640 98.2544 18.3619
641 18.4725 141.0456
642 245.1400 85.2768
643 107.9715 143.3313
644 174.4820 56.1961
645 286.6108 355.2807
646 23.2070 258.5166
647 131.0055 289.0077
648 39.2191 327.0367
649 296.1080 215.3389
650 288.8026 46.5720
651 88.5127 234.2935
652 111.9318 255.3970
653 5.0871 313.6171
654 27.1138 179.3452
655 215.5074 58.8742
656 262.4935 121.7023
657 227.9928 155.1315
658 53.2747 277.3946
659 255.4218 248.4110
660 134.9076 153.7140
661 35.6079 386.3094
662 190.8238 262.9551
663 290.8212 97.0016
664 143.6364 51.0511
665 237.2576 65.0595
666 127.6038 102.6866
667 295.1145 67.3838
668 254.4562 75.3691
669 114.1210 122.4189
670 221.7512 71.0710
671 236.0802 357.3548
672 271.9417 44.6686
673 51.6787 229.3619
674 138.5937 171.0101
675 264.6361 384.9133
676 139.6126 54.8737
677 123.7240 167.1206
678 248.9025 380.0664
679 255.5340 348.1421
680 118.0117 335.4220
681 227.2950 108.4860
682 289.5772 70.0437
683 253.1230 285.5586
684 258.3432 367.7292
685 245.6523 242.8456
686 27.6925 249.4299
687 273.6730 119.2754
688 5.3063 321.7890
689 289.4464 75.7984
690 263.8224 141.8576
691 192.9166 176.4310
692 8.3189 221.5822
693 217.3712 100.6011
694 86.7056 55.6884
695 104.3746 264.1669
696 43.4305 124.1426
697 28.8901 253.3459
698 91.1545 66.0254
699 2.6458 206.6369
700 147.3406 232.0717
701 243.4096 34.3112
702 271.6771 146.6058
703 188.3646 60.2179
704 100.9880 39.4540
705 46.6883 387.1406
706 42.4856 141.0275
707 95.5055 333.9640
708 299.3842 106.0390
709 59.0310 290.3880
710 298.1600 317.0234
711 283.7562 258.4585
712 84.2892 200.9001
713 291.1161 171.9559
714 7.3140 151.8884
715 272.6029 367.8267
716 51.9840 339.2884
717 103.9611 379.3895
718 239.3855 57.3404
719 290.5414 307.1541
720 235.5537 370.5417
721 54.7619 74.8336
722 119.4404 40.3023
723 142.2593 311.1946
724 86.0576 250.3424
725 86.2702 342.9664
726 64.5577 62.3473
727 8.5805 329.1392
728 129.4440 81.6262
729 261.4889 68.4018
730 21.9938 69.8803
731 202.6234 334.5694
732 166.6207 284.2013
733 170.3951 228.0395
734 111.4755 154.5430
735 29.2277 352.9640
736 196.9095 165.7221
737 68.5334 335.8700
738 176.1307 182.7905
739 136.1248 160.7942
740 14.2758 195.8771
741 277.9440 130.1488
742 244.4627 313.9810
743 89.4834 218.8635
744 125.5887 95.3753
745 169.2858 358.2032
746 259.7618 162.3865
747 6.5113 237.4923
748 193.5773 360.8656
749 13.9807 269.4076
750 226.8275 55.7645
751 55.5735 371.9560
752 75.2005 270.1093
753 63.8540 146.4391
754 282.8470 61.8931
755 181.0625 328.8835
756 179.4483 267.5104
757 254.6266 232.9264
758 283.0191 356.4768
759 0.6877 327.7227
760 151.6925 65.1344
761 24.2994 136.3587
762 270.8044 103.2788
763 130.2107 312.9574
764 162.0089 26.9978
765 108.6768 248.8285
766 220.2946 318.0143
767 2.7379 352.8341
768 225.7405 148.1429
769 169.7534 336.7689
770 289.6585 53.7661
771 166.8459 343.6136
772 209.0886 58.4876
773 70.0776 167.4075
774 178.4071 329.0660
775 284.3488 64.1110
776 298.8082 93.9477
777 263.0723 304.9551
778 0.5226 304.2996
779 106.0769 275.5006
780 173.7945 294.7071
781 198.0502 236.0729
782 147.4029 105.2953
783 295.2324 149.2810
784 81.8035 74.9292
785 64.4051 361.9061
786 8.3215 254.4764
787 115.2260 168.6405
788 228.9790 194.6035
789 212.3578 373.6478
790 275.1229 65.8887
791 35.5031 255.4493
792 17.5859 220.6248
793 196.0718 264.6826
794 175.2419 16.7140
795 191.8225 350.8040
796 227.5525 368.5202
797 105.1429 246.7753
798 159.2714 295.4967
799 177.2843 365.1338
800 86.6296 299.0543
801 213.7486 65.3176
802 20.0001 251.5111
803 298.0469 262.2762
804 29.7070 176.0627
805 279.8393 309.0038
806 121.2468 369.7409
807 170.3163 366.1019
808 125.3602 188.2704
809 219.8427 54.3133
810 196.7889 385.8919
811 145.4338 341.9099
812 269.3773 57.9641
813 23.0893 365.6870
814 17.4938 350.3876
815 197.6327 226.7039
816 40.0044 257.1670
817 231.7130 167.6664
818 15.9660 36.7610
819 103.9508 146.7025
820 66.2981 331.1054
821 45.7818 4.6441
822 225.0482 145.3601
823 145.9568 167.5004
824 133.4327 234.4577
825 246.2089 364.3687
826 47.3698 150.0524
827 120.7676 150.4165
828 59.8222 310.8503
829 28.2120 189.6574
830 269.4723 91.8802
831 69.2157 189.6778
832 140.6078 62.2953
833 197.1366 72.6516
834 290.7386 215.3156
835 92.6448 174.3951
836 52.7132 363.1992
837 159.8902 155.2874
838 281.3678 252.0581
839 2.1115 272.5159
840 261.2676 11.8355
841 289.0147 283.3791
842 60.3373 73.0193
843 29.1244 378.4136
844 190.4929 64.4043
845 271.5309 172.5951
846 163.0099 46.4641
847 42.9635 389.5190
848 11.6775 218.3119
849 265.7740 258.7729
850 161.5213 40.9760
851 150.1256 314.0169
852 297.7702 84.8072
853 34.1202 358.2656
854 279.0176 82.2933
855 81.7731 77.5180
856 102.3481 28.3717
857 196.0014 200.2998
858 60.6465 246.9742
859 297.8471 39.0236
860 286.8986 322.7832
861 243.7804 189.4580
862 28.3980 229.3029
863 102.0657 183.2282
864 109.2466 168.4841
865 5.7474 244.4738
866 152.0578 66.9578
867 106.9427 74.7852
868 244.9913 347.5445
869 65.9628 373.0756
870 72.3657 159.2254
871 19.1958 115.1408
872 146.6224 276.7813
873 288.5783 170.1470
874 185.8111 21.6360
875 219.3882 66.6741
876 144.2599 302.3452
877 52.9175 282.2905
878 201.4700 22.8901
879 198.7077 90.0622
880 280.1473 94.0078
881 286.6309 286.4477
882 252.1343 17.9579
883 57.5297 52.2419
884 111.5006 330.6796
885 96.0762 73.2747
886 284.8070 279.4597
887 112.5466 98.4328
888 214.0439 50.1657
889 1.4455 101.2092
890 265.0500 304.8436
891 31.9812 346.7931
892 27.8538 339.2420
893 54.9606 167.1969
894 175.9514 285.9948
895 268.7117 82.9811
896 188.5695 126.2595
897 177.4370 357.5936
898 224.0731 11.6223
899 174.9812 46.1901
900 44.7926 84.9079
901 153.9437 22.9601
902 69.5215 74.9773
903 282.7573 253.1617
904 34.4769 175.7183
905 158.2473 356.6406
906 148.6666 335.1627
907 204.5651 148.7716
908 98.4989 109.0121
909 121.0090 161.3570
910 269.9262 256.2287
911 262.6344 113.2221
912 6.3217 269.8480
913 36.7289 171.0954
914 224.4287 240.0292
915 30.4809 181.6624
916 43.1185 127.2889
917 12.3978 374.9195
918 26.9933 319.0449
919 88.7610 62.3717
920 184.3925 349.7543
921 194.9184 209.9509
922 26.5771 357.3571
923 106.7875 330.2510
924 151.5641 176.3586
925 205.6566 19.2404
926 13.1916 114.9182
927 46.1018 236.5060
928 130.2209 272.0389
929 223.0360 108.1752
930 288.8668 61.2825
931 118.9505 340.5816
932 137.4366 385.5801
933 190.5167 229.7588
934 87.2825 71.3531
935 287.8941 115.9465
936 224.8926 16.4194
937 16.7804 363.4763
938 288.4975 55.2047
939 36.5911 251.1861
940 270.3316 116.8550
941 196.2071 241.0712
942 106.0690 279.9408
943 297.5069 338.4094
944 134.8109 83.8358
945 271.3322 9.6936
946 113.7711 61.6547
947 224.1516 358.8759
948 43.5391 351.2825
949 172.4252 259.0376
950 232.1279 260.7655
951 145.0000 284.4166
952 111.5225 72.0546
953 23.9731 363.2261
954 72.3042 174.3039
955 164.2304 162.0015
956 212.7293 226.9668
957 257.2243 32.6630
958 197.7419 69.8484
959 117.4226 310.3029
960 206.3253 45.7126
961 211.8168 261.1816
962 32.3709 102.9019
963 190.8067 164.9849
964 51.7542 124.3932
965 96.5906 153.6610
966 195.0785 303.5445
967 207.7093 128.1673
968 292.7806 246.5838
969 4.9522 203.0424
970 299.2653 283.6016
971 61.2966 370.7144
972 156.7590 308.1025
973 79.5139 87.5089
974 113.3693 25.9329
975 277.8275 110.6972
976 217.7143 258.4617
977 193.9210 34.6946
978 256.7290 214.8617
979 90.2741 259.8071
980 2.1952 146.3453
981 119.3356 321.9785
982 246.8565 52.7012
983 112.7271 43.5621
984 297.9471 306.4963
985 52.3805 214.1630
986 189.7862 292.7344
987 156.3844 180.0252
988 252.8390 102.0114
989 3.7037 336.9703
990 60.4377 330.2350
991 268.7049 294.8171
992 274.5464 115.9670
993 264.0517 256.5048
994 14.7185 155.8626
995 143.1793 48.8000
996 3.5527 364.3966
997 108.1317 61.8653
998 194.1573 374.3098
999 299.2900 185.8714
EOF
