NAME: goku
TYPE: TSP
DIMENSION: 2000
EDGE_WEIGHT_TYPE: EUC_2D
NODE_COORD_SECTION
0 76.2617 146.2470
1 401.9063 427.2495
2 420.2719 336.7594
3 269.4497 253.7767
4 424.0654 66.4876
5 413.0336 66.0627
6 160.9064 29.1392
7 97.5324 399.4111
8 326.3473 254.8998
9 339.0218 319.6638
10 261.9634 11.5602
11 232.9368 435.0523
12 159.4188 385.2602
13 272.7308 87.9813
14 298.2565 76.6542
15 154.1981 77.5653
16 22.4639 119.9720
17 92.6085 220.3495
18 311.1141 174.1512
19 223.2253 114.2510
20 258.8506 260.5612
21 328.5234 60.1148
22 329.8601 114.7228
23 321.0677 142.7078
24 98.5435 188.0817
25 352.4583 363.4847
26 113.1658 83.9457
27 345.8500 215.6690
28 202.4623 250.4118
29 12.6510 24.5454
30 138.0623 258.5125
31 257.8064 72.4592
32 173.0520 32.7863
33 100.2014 427.2586
34 357.1647 433.3302
35 253.7568 374.5194
36 82.2049 119.8778
37 138.8796 45.8706
38 290.2388 302.4512
39 134.9850 179.7720
40 189.0272 54.0652
41 69.4639 208.9092
42 254.5387 18.4978
43 429.1055 412.6568
44 49.8221 103.3804
45 93.7756 292.9645
46 323.2038 121.5233
47 110.2871 218.7929
48 122.5776 229.6346
49 328.7979 77.3960
50 139.9151 435.5330
51 304.1580 359.6959
52 292.7933 423.3168
53 140.8572 408.9061
54 137.2769 253.9835
55 99.1407 417.2020
56 251.1842 41.8940
57 329.6543 81.1521
58 219.4403 23.6153
59 280.0835 126.8824
60 111.8036 152.5052
61 157.9671 107.4178
62 329.9841 383.6679
63 359.6347 138.1660
64 316.8819 110.4275
65 202.1622 227.0126
66 174.5598 61.5274
67 202.7194 371.8903
68 18.0794 36.7315
69 25.1874 442.8582
70 175.8191 358.5408
71 322.7102 82.3144
72 148.4712 3.8216
73 370.4593 377.3578
74 335.4942 318.8282
75 160.3352 335.1738
76 348.7120 357.8260
77 302.1006 35.2399
78 232.1420 139.3479
79 108.4504 52.7488
80 435.6511 397.6209
81 148.3524 267.8414
82 314.4713 128.9791
83 270.6341 31.1263
84 211.6762 121.3251
85 264.6863 126.0696
86 298.1749 335.8557
87 112.2272 277.8370
88 354.2793 405.6429
89 138.6942 197.5127
90 214.3053 53.2126
91 256.0332 324.3039
92 164.6532 352.9383
93 137.8712 235.7661
94 296.7884 357.6650
95 268.2603 207.9072
96 165.6707 219.5604
97 129.1110 172.4471
98 128.4604 14.8646
99 133.5466 49.3804
100 130.9768 17.1107
101 158.4225 276.0420
102 289.7399 122.9181
103 249.2800 213.8583
104 180.2922 412.9108
105 329.7540 99.8049
106 300.0180 162.9628
107 193.7267 349.3048
108 41.8294 93.2815
109 418.8728 36.1126
110 368.7037 113.5407
111 390.0965 68.2419
112 406.0124 419.4688
113 198.3013 374.5984
114 190.2972 274.2999
115 419.7432 400.0481
116 154.9029 372.8523
117 226.6678 78.5932
118 209.8923 407.1853
119 18.0790 226.2395
120 97.7946 374.0347
121 298.5828 408.9954
122 417.8557 123.5214
123 354.0636 49.8314
124 311.5990 92.1149
125 423.0939 171.9096
126 437.6692 378.8293
127 39.8790 397.5718
128 37.5174 4.4304
129 221.3169 214.4346
130 256.7739 166.6019
131 331.8925 90.4434
132 256.6071 53.6313
133 175.5917 131.7026
134 406.2374 424.5124
135 355.1042 125.3845
136 294.4877 217.6522
137 294.9505 315.6007
138 275.7436 141.5063
139 101.6341 436.0709
140 277.2544 432.3619
141 289.4725 100.0456
142 55.1400 209.2768
143 345.9715 117.3313
144 94.4820 112.1961
145 292.6108 19.2807
146 196.2070 259.5166
147 117.0055 211.0077
148 176.2191 26.0367
149 369.1080 109.3389
150 285.8026 412.5720
151 237.5127 96.2935
152 328.9318 62.3970
153 315.0871 205.6171
154 273.1138 441.3452
155 153.5074 97.8742
156 283.4935 296.7023
157 299.9928 352.1315
158 335.2747 95.3946
159 344.4218 334.4110
160 143.9076 143.7140
161 267.6079 273.3094
162 233.8238 274.9551
163 186.8212 224.0016
164 174.6364 42.0511
165 292.2576 386.0595
166 411.6038 124.6866
167 214.1145 78.3838
168 219.4562 21.3691
169 249.1210 249.4189
170 205.7512 299.0710
171 231.0802 9.3548
172 398.9417 214.6686
173 146.6787 92.3619
174 101.5937 282.0101
175 365.6361 73.9133
176 290.6126 306.8737
177 152.7240 151.1206
178 273.9025 422.0664
179 93.5340 60.1421
180 319.0117 132.4220
181 148.2950 51.4860
182 93.5772 418.0437
183 265.1230 402.5586
184 301.3432 102.7292
185 308.6523 290.8456
186 290.6925 378.4299
187 272.6730 232.2754
188 77.3063 222.7890
189 145.4464 97.7984
190 190.8224 43.8576
191 31.9166 409.4310
192 40.3189 410.5822
193 128.3712 274.6011
194 372.7056 131.6884
195 365.3746 135.1669
196 171.4305 333.1426
197 435.8901 408.3459
198 329.1545 405.0254
199 304.6458 361.6369
200 99.3406 280.0717
201 302.4096 39.3112
202 101.6771 69.6058
203 199.3646 409.2179
204 277.9880 257.4540
205 187.6883 5.1406
206 275.4856 46.0275
207 219.5055 292.9640
208 391.3842 2.0390
209 325.0310 68.3880
210 79.1600 230.0234
211 156.7562 307.4585
212 233.2892 286.9001
213 256.1161 91.9559
214 284.3140 323.8884
215 306.6029 95.8267
216 287.9840 126.2884
217 299.9611 344.3895
218 94.3855 285.3404
219 264.5414 392.1541
220 276.5537 289.5417
221 103.7619 238.8336
222 257.4404 43.3023
223 131.2593 143.1946
224 134.0576 105.3424
225 439.2702 97.9664
226 334.5577 436.3473
227 93.5805 154.1392
228 159.4440 407.6262
229 309.4889 272.4018
230 378.9938 367.8803
231 105.6234 211.5694
232 113.6207 242.2013
233 56.3951 207.0395
234 256.4755 81.5430
235 444.2277 330.9640
236 292.9095 110.7221
237 253.5334 13.8700
238 139.1307 282.7905
239 423.1248 74.7942
240 442.2758 423.8771
241 98.9440 429.1488
242 401.4627 414.9810
243 125.4834 144.8635
244 377.5887 8.3753
245 191.2858 419.2032
246 263.7618 172.3865
247 99.5113 434.4923
248 47.5773 433.8656
249 1.9807 394.4076
250 266.8275 115.7645
251 270.5735 150.9560
252 140.2005 393.1093
253 261.8540 123.4391
254 99.8470 72.8931
255 189.0625 233.8835
256 136.4483 422.5104
257 279.6266 310.9264
258 319.0191 238.4768
259 393.6877 44.7227
260 58.6925 262.1344
261 103.2994 443.3587
262 46.8044 61.2788
263 230.2107 217.9574
264 267.0089 402.9978
265 310.6768 341.8285
266 158.2946 311.0143
267 46.7379 315.8341
268 430.7405 139.1429
269 149.7534 115.7689
270 25.6585 375.7661
271 193.8459 375.6136
272 221.0886 399.4876
273 142.0776 414.4075
274 288.4071 214.0660
275 303.3488 210.1110
276 232.8082 369.9477
277 139.0723 285.9551
278 302.5226 314.2996
279 189.0769 368.5006
280 302.7945 406.7071
281 234.0502 131.0729
282 227.4029 146.2953
283 277.2324 43.2810
284 326.8035 242.9292
285 173.4051 19.9061
286 246.3215 193.4764
287 191.2260 227.6405
288 328.9790 112.6035
289 242.3578 249.6478
290 292.1229 16.8887
291 359.5031 19.4493
292 437.5859 380.6248
293 118.0718 140.6826
294 149.2419 56.7140
295 70.8225 219.8040
296 130.5525 357.5202
297 313.1429 88.7753
298 43.2714 267.4967
299 174.2843 40.1338
300 200.6296 26.0543
301 291.7486 222.3176
302 230.0001 226.5111
303 98.0469 277.2762
304 214.7070 333.0627
305 354.8393 437.0038
306 292.2468 216.7409
307 329.3163 125.1019
308 83.3602 368.2704
309 106.8427 107.3133
310 249.7889 178.8919
311 252.4338 37.9099
312 98.3773 14.9641
313 309.0893 432.6870
314 401.4938 386.3876
315 250.6327 310.7039
316 1.0044 162.1670
317 272.7130 73.6664
318 106.9660 67.7610
319 121.9508 100.7025
320 146.2981 230.1054
321 296.7818 325.6441
322 443.0482 290.3601
323 197.9568 110.5004
324 281.4327 429.4577
325 146.2089 340.3687
326 183.3698 232.0524
327 214.7676 260.4165
328 315.8222 167.8503
329 147.2120 99.6574
330 233.4723 138.8802
331 298.2157 350.6778
332 166.6078 8.2953
333 133.1366 52.6516
334 303.7386 23.3156
335 210.6448 21.3951
336 439.7132 394.1992
337 34.8902 316.2874
338 161.3678 198.0581
339 152.1115 45.5159
340 296.2676 206.8355
341 351.0147 197.3791
342 259.3373 73.0193
343 337.1244 175.4136
344 239.4929 156.4043
345 270.5309 262.5951
346 239.0099 275.4641
347 227.9635 23.5190
348 86.6775 146.3119
349 115.7740 269.7729
350 205.5213 211.9760
351 154.1256 395.0169
352 116.7702 290.8072
353 280.1202 69.2656
354 208.0176 34.2933
355 142.7731 280.5180
356 291.3481 14.3717
357 313.0014 246.2998
358 402.6465 423.9742
359 206.8471 241.0236
360 430.8986 151.7832
361 374.7804 280.4580
362 177.3980 189.3029
363 302.0657 228.2282
364 149.2466 424.4841
365 72.7474 151.4738
366 81.0578 432.9578
367 299.9427 411.7852
368 315.9913 81.5445
369 410.9628 33.0756
370 206.3657 46.2254
371 199.1958 10.1408
372 325.6224 43.7813
373 53.5783 302.1470
374 279.8111 34.6360
375 149.3882 124.6741
376 350.2599 390.3452
377 39.9175 13.2905
378 195.4700 377.8901
379 57.7077 111.0622
380 348.1473 52.0078
381 98.6309 311.4477
382 136.1343 271.9579
383 275.5297 402.2419
384 305.5006 338.6796
385 109.0762 372.2747
386 95.8070 111.4597
387 98.5466 75.4328
388 312.0439 346.1657
389 342.4455 373.2092
390 163.0500 443.8436
391 432.9812 163.7931
392 56.8538 145.2420
393 173.9606 360.1969
394 266.9514 132.9948
395 130.7117 420.9811
396 97.5695 396.2595
397 59.4370 173.5936
398 399.0731 346.6223
399 365.9812 348.1901
400 189.7926 47.9079
401 317.9437 410.9601
402 137.5215 212.9773
403 324.7573 382.1617
404 282.4769 124.7183
405 199.2473 408.6406
406 192.6666 152.1627
407 165.5651 6.7716
408 302.4989 411.0121
409 270.0090 42.3570
410 199.9262 124.2287
411 319.6344 427.2221
412 397.3217 427.8480
413 203.7289 240.0954
414 144.4287 273.0292
415 359.4809 183.6624
416 91.1185 115.2889
417 366.3978 127.9195
418 341.9933 296.0449
419 304.7610 347.3717
420 232.3925 366.7543
421 298.9184 365.9509
422 263.5771 42.3571
423 357.7875 207.2510
424 416.5641 28.3586
425 185.6566 230.2404
426 437.1916 179.9182
427 426.1018 405.5060
428 239.2209 136.0389
429 251.0360 52.1752
430 105.8668 62.2825
431 253.9505 352.5816
432 391.4366 263.5801
433 253.5167 46.7588
434 297.2825 39.3531
435 351.8941 313.9465
436 181.8926 35.4194
437 299.7804 380.4763
438 162.4975 318.2047
439 279.5911 38.1861
440 95.3316 40.8550
441 395.2071 441.0712
442 2.0690 146.9408
443 206.5069 144.4094
444 298.8109 376.8358
445 282.3322 426.6936
446 325.7711 441.6547
447 171.1516 348.8759
448 334.5391 146.2825
449 249.4252 39.0376
450 271.1279 360.7655
451 82.0000 234.4166
452 173.5225 170.0546
453 427.9731 411.2261
454 190.3042 50.3039
455 60.2304 207.0015
456 253.7293 6.9668
457 126.2243 195.6630
458 211.7419 28.8484
459 131.4226 53.3029
460 283.3253 52.7126
461 300.8168 284.1816
462 184.3709 344.9019
463 246.8067 245.9849
464 228.7542 432.3932
465 120.5906 146.6610
466 241.0785 112.5445
467 436.7093 399.1673
468 150.7806 91.5838
469 394.9522 432.0424
470 59.2653 7.6016
471 220.2966 435.7144
472 241.7590 22.1025
473 65.5139 407.5089
474 181.3693 221.9329
475 132.8275 444.6972
476 283.7143 35.4617
477 105.9210 232.6946
478 115.7290 435.8617
479 212.2741 219.8071
480 257.1952 271.3453
481 179.3356 310.9785
482 175.8565 187.7012
483 162.7271 270.5621
484 89.9471 246.4963
485 144.3805 410.1630
486 251.7862 23.7344
487 323.3844 110.0252
488 363.8390 427.0114
489 344.7037 406.9703
490 357.4377 187.2350
491 116.7049 265.8171
492 236.5464 109.9670
493 13.0517 79.5048
494 212.7185 192.8626
495 226.1793 137.8000
496 295.5527 245.3966
497 174.1317 37.8653
498 110.1573 437.3098
499 349.2900 441.8714
500 15.6727 312.7967
501 220.2505 224.6249
502 368.5717 120.8328
503 101.9061 377.0122
504 30.6740 303.0518
505 238.5489 69.2876
506 214.3068 413.3530
507 407.6213 380.3340
508 279.7327 427.4045
509 132.0684 333.7838
510 138.2858 261.4328
511 33.6854 167.3325
512 446.0566 420.3739
513 63.9444 399.6417
514 217.6715 23.6323
515 263.1990 14.4183
516 366.7509 146.1014
517 290.2779 375.2763
518 81.4320 442.9804
519 336.0675 64.5187
520 186.1794 251.9707
521 330.1133 148.4036
522 233.7379 435.7046
523 291.4227 389.3465
524 415.3976 387.2643
525 139.2053 195.4830
526 104.2685 165.2875
527 50.6568 108.9685
528 222.6036 28.0770
529 275.0756 398.9514
530 329.2973 376.0921
531 392.5990 446.6236
532 340.6485 445.2674
533 326.0151 232.9650
534 278.2509 356.6760
535 304.7066 425.6100
536 329.3129 392.2711
537 111.5977 99.8661
538 23.9467 185.1059
539 443.1548 56.9447
540 116.7365 429.8830
541 264.2026 257.5876
542 419.7011 92.6801
543 212.4082 296.0154
544 324.5829 263.2531
545 186.4503 139.9576
546 153.3990 51.8398
547 190.1885 296.6725
548 167.9770 218.1019
549 189.0083 358.4336
550 127.0926 218.7484
551 326.9145 393.4340
552 182.2587 231.4344
553 90.7234 235.0091
554 209.5895 402.6133
555 60.6377 159.2420
556 314.7141 58.0914
557 302.1993 15.8775
558 139.7387 349.0137
559 133.2484 265.2144
560 240.2708 316.2476
561 319.0625 87.4589
562 284.7327 59.6067
563 187.6729 8.0811
564 188.9515 136.8385
565 32.8051 249.8230
566 316.9327 153.5443
567 317.2003 177.6168
568 133.7429 411.7379
569 216.5214 135.0685
570 308.3711 215.9208
571 125.5844 363.5383
572 284.2689 155.3684
573 224.8953 266.6665
574 318.7874 397.4543
575 214.6302 427.2484
576 286.7055 63.4276
577 363.4425 418.6493
578 418.9363 206.0640
579 333.8247 102.2924
580 333.4439 189.0219
581 174.3010 439.5026
582 60.0562 207.4911
583 394.9271 127.1054
584 189.7644 274.4097
585 296.6552 96.2602
586 241.1595 36.1605
587 334.0705 56.1856
588 264.6642 56.8817
589 215.8141 65.6851
590 266.1104 60.2892
591 142.3098 279.2500
592 307.5150 76.5356
593 213.3569 134.3538
594 415.8286 408.7893
595 92.3078 198.9138
596 187.9528 294.3267
597 110.3544 73.5056
598 229.9411 80.8763
599 228.1026 21.3927
600 337.5534 71.5031
601 367.1939 109.8588
602 378.6769 74.8379
603 266.8588 41.7484
604 318.4392 53.6105
605 309.1604 190.6736
606 237.1793 85.6939
607 366.2296 141.1176
608 237.1653 211.0020
609 170.7187 306.7324
610 299.5149 20.1614
611 1.0836 370.0191
612 256.1657 270.8909
613 314.2415 38.3543
614 256.1053 401.2224
615 400.5192 416.6078
616 247.2454 30.0577
617 145.3910 109.2342
618 225.2196 373.9599
619 256.6163 345.5569
620 292.4158 77.4289
621 261.5409 86.6964
622 170.7021 144.1717
623 256.5001 203.4120
624 416.8705 263.6314
625 325.5325 143.1154
626 323.6056 191.1172
627 92.3372 345.1428
628 268.6921 19.2063
629 368.3919 100.8957
630 294.2043 324.5078
631 166.4193 408.0181
632 336.7928 214.0690
633 5.4743 223.5607
634 330.6284 48.6886
635 174.2533 183.0100
636 117.7234 223.5357
637 229.8361 97.8214
638 271.8433 106.4851
639 127.3336 147.7916
640 193.4513 11.1834
641 197.8550 125.8826
642 143.4663 87.0757
643 217.3878 127.8035
644 251.9018 53.2035
645 410.0670 406.8774
646 11.3894 251.5418
647 127.9681 300.0666
648 212.6483 365.0741
649 242.3755 209.8038
650 371.4335 40.9972
651 37.5591 225.3212
652 201.2201 247.3505
653 426.3725 343.0687
654 267.3696 174.4642
655 208.7227 56.6567
656 325.7088 111.0084
657 186.2177 141.6617
658 249.4840 282.0053
659 116.8045 239.7728
660 260.5484 138.0665
661 390.7665 441.5837
662 198.7820 257.7517
663 306.8030 95.5180
664 305.1403 46.6712
665 326.6205 65.7423
666 283.1699 98.1950
667 315.8904 68.7500
668 226.9082 78.7587
669 135.5972 112.6541
670 276.8891 73.5788
671 413.6324 408.1565
672 173.4739 38.7164
673 25.2709 220.2023
674 309.3138 162.2415
675 132.2149 440.4249
676 279.9078 50.5071
677 136.1879 156.0770
678 134.6962 435.3828
679 411.8218 398.6595
680 251.7962 378.2719
681 294.6924 102.2641
682 289.9391 72.6364
683 409.3245 294.2695
684 351.1909 419.6946
685 185.2187 233.5953
686 220.2646 239.6620
687 202.8149 110.7780
688 387.7609 356.1877
689 283.0884 78.6989
690 53.3683 126.4323
691 50.0311 171.2596
692 103.0337 213.8792
693 225.2434 97.5573
694 289.0390 51.6668
695 302.3230 259.8979
696 245.8881 113.3253
697 205.9010 244.9962
698 175.8254 66.8449
699 320.2490 201.5767
700 115.0673 223.0949
701 221.9989 26.3266
702 445.7482 130.8067
703 351.8580 58.9976
704 250.2415 31.0404
705 88.4112 443.1301
706 238.0224 125.3604
707 164.7837 375.5662
708 278.3128 101.6543
709 178.2320 301.0144
710 393.7644 351.6237
711 96.7623 252.0389
712 335.8371 196.6195
713 226.5634 163.6246
714 326.8644 135.5869
715 396.5810 419.9907
716 261.7567 384.4423
717 273.7074 433.3892
718 145.2289 55.5969
719 193.9282 336.9291
720 85.3419 423.5277
721 248.2116 76.9956
722 310.9811 32.6495
723 389.8044 341.7151
724 340.5932 240.0533
725 240.4548 389.6748
726 356.6775 60.3731
727 122.9417 368.1674
728 334.5004 83.6909
729 336.6971 69.6486
730 101.2753 70.1562
731 213.6359 377.5993
732 144.1794 293.7051
733 205.4552 219.6678
734 307.8374 139.1697
735 257.0191 402.7791
736 344.6097 153.6996
737 165.8382 378.8028
738 273.9609 178.5359
739 86.4885 147.4019
740 341.1537 191.5726
741 11.2770 118.9213
742 141.5832 345.5928
743 140.3549 211.0520
744 102.0317 94.4233
745 354.0846 409.6068
746 79.8810 150.8829
747 347.6590 227.2112
748 436.8630 411.8861
749 52.1967 268.7374
750 218.2865 52.8026
751 350.9972 423.0300
752 232.8974 270.6226
753 158.9734 130.4650
754 306.8474 60.0624
755 295.3353 367.0670
756 114.9753 265.8170
757 213.8525 223.9380
758 421.0851 407.3856
759 151.0710 365.2108
760 178.2294 65.4691
761 325.2686 121.1010
762 240.1675 99.1473
763 144.9731 343.7593
764 147.9678 18.4397
765 301.2784 238.7983
766 132.3263 353.2994
767 238.2325 402.1297
768 69.2565 133.3553
769 183.6740 380.0626
770 131.2105 50.8090
771 187.1469 391.3426
772 197.8647 56.1549
773 55.0827 156.4845
774 3.3024 369.5634
775 299.8038 64.1371
776 119.5807 93.5055
777 435.1441 330.6240
778 307.2736 329.4878
779 211.0823 279.4596
780 420.3065 308.8224
781 207.0570 227.4186
782 293.4584 100.7250
783 216.5743 134.6672
784 286.7770 76.8622
785 311.3139 412.5380
786 248.8401 245.9895
787 296.8895 157.3715
788 211.1952 191.4894
789 285.7416 426.4926
790 427.4832 65.8382
791 90.3614 247.8598
792 234.4068 212.3282
793 157.4540 260.7624
794 184.1260 10.1964
795 98.9514 401.1755
796 351.5677 420.5793
797 309.4896 236.6447
798 35.2298 311.5527
799 191.3722 417.6617
800 79.1412 319.5709
801 294.1853 65.2786
802 321.2187 241.1828
803 311.8257 257.2857
804 161.9271 170.9699
805 229.5713 339.1430
806 284.3745 421.7977
807 199.3674 418.0870
808 138.5568 185.8451
809 112.7959 51.1751
810 110.6728 441.2205
811 115.2182 388.8741
812 186.2497 55.2632
813 398.0007 416.8707
814 220.7926 400.6273
815 298.7503 217.1520
816 293.4583 249.3512
817 328.0938 156.4861
818 298.9207 27.0401
819 200.2915 130.2075
820 341.2381 371.9084
821 252.4681 2.4663
822 330.7606 129.1545
823 193.4873 156.4300
824 101.5969 225.9996
825 232.7694 416.3979
826 334.8276 134.1707
827 40.0305 135.2044
828 418.3404 339.5106
829 431.6151 185.9106
830 287.5099 91.5013
831 74.0502 186.0349
832 160.5512 61.4382
833 303.8392 74.1607
834 240.0250 209.4490
835 204.2375 167.0496
836 400.7246 414.1116
837 82.6083 141.2810
838 71.1735 244.3798
839 265.8014 273.3921
840 253.7508 7.1255
841 226.7728 292.2369
842 157.6774 75.5658
843 55.9291 432.3873
844 132.0662 64.0192
845 61.8269 165.5247
846 174.7752 40.2344
847 357.3451 445.0301
848 56.9615 211.6679
849 408.9332 251.2655
850 96.6115 33.6785
851 219.3175 346.8481
852 316.9472 86.8849
853 148.7391 409.2775
854 92.2816 85.9634
855 352.0103 79.7160
856 243.7062 19.6227
857 80.9901 197.3119
858 260.3400 236.0789
859 250.4428 32.2610
860 382.3434 359.8346
861 267.9355 186.1857
862 400.3725 219.9286
863 224.0618 179.0924
864 275.1628 157.5952
865 226.1505 234.9681
866 295.4467 66.5015
867 314.2467 76.4710
868 240.6619 397.7512
869 85.7539 426.5779
870 253.9044 145.8174
871 100.7570 107.0556
872 143.0069 281.2124
873 353.6635 161.4112
874 114.4024 14.8846
875 36.8956 67.9092
876 299.3139 326.6911
877 152.2716 290.1906
878 438.1846 14.3421
879 319.4300 90.8309
880 311.1199 93.7349
881 228.5315 296.2879
882 157.4928 11.2999
883 289.5961 47.4338
884 167.1644 370.1166
885 257.5467 75.9024
886 68.3440 287.7330
887 66.6587 96.9316
888 317.8210 45.5666
889 299.6570 97.8984
890 436.3995 330.3268
891 50.0108 395.8266
892 161.8010 384.1045
893 0.5769 156.4640
894 268.1187 294.9806
895 35.2147 85.0672
896 83.5948 115.7389
897 321.0324 408.6587
898 230.5323 7.1033
899 192.1725 40.5680
900 62.2964 86.9383
901 292.8187 14.9836
902 275.2597 76.9697
903 203.4312 245.3475
904 341.0503 168.0528
905 224.6920 407.4579
906 333.2265 378.6140
907 32.2529 133.5776
908 138.3592 103.8236
909 133.8207 148.4774
910 136.3508 249.3626
911 128.8057 106.3282
912 443.2091 267.0847
913 132.4667 162.4821
914 191.8409 231.2212
915 67.3810 177.8084
916 268.8236 115.3846
917 48.4591 427.3033
918 307.9326 353.1186
919 59.9337 61.6839
920 431.5316 399.0327
921 362.4756 204.4077
922 104.1612 408.6564
923 165.9712 370.5622
924 370.7148 170.0685
925 261.4177 12.1164
926 200.6128 106.9385
927 73.6618 227.0768
928 230.3547 274.5507
929 293.4032 102.8336
930 315.8147 60.6118
931 223.3735 386.2553
932 67.1059 441.3549
933 231.4132 220.6758
934 354.6582 72.0701
935 275.3953 107.1818
936 219.1568 10.8273
937 302.0419 414.4192
938 303.1682 52.8793
939 407.5570 241.2314
940 145.5024 108.7315
941 169.9581 232.2204
942 121.8862 286.9343
943 110.9164 384.6354
944 256.6298 85.4032
945 200.7524 6.5313
946 330.6774 59.4285
947 419.7315 409.8245
948 267.1464 401.8329
949 29.5403 253.8447
950 261.4313 254.3790
951 116.9151 293.2512
952 158.8442 74.4840
953 310.5141 414.3085
954 175.5730 167.3252
955 325.0393 149.2720
956 310.0064 217.9784
957 167.9657 24.3952
958 336.7284 70.3458
959 176.6711 340.8054
960 174.9468 39.4002
961 406.7833 255.2659
962 220.9903 98.0258
963 206.6035 152.6595
964 248.6880 113.1204
965 194.9385 138.1812
966 0.6228 329.2227
967 254.3072 116.5465
968 184.4172 237.1602
969 92.1709 199.4181
970 236.7573 292.8980
971 277.0841 422.3931
972 175.1002 337.0166
973 209.6617 88.6024
974 21.1630 17.2338
975 133.0237 104.8349
976 298.9747 251.1355
977 172.2315 26.8684
978 290.9265 208.4196
979 285.0506 252.0394
980 60.5739 130.3929
981 259.0287 357.5833
982 272.0113 48.7874
983 165.3064 36.0403
984 331.5884 334.3977
985 143.9738 208.5442
986 140.2752 305.7094
987 178.2715 176.9042
988 324.3747 98.5499
989 207.0506 379.4261
990 3.8324 370.8056
991 279.2243 309.2261
992 268.8173 107.9304
993 121.0954 249.4501
994 247.3375 140.8707
995 294.0835 42.2111
996 303.7525 415.0513
997 327.4925 59.4421
998 350.3344 427.3946
999 232.5299 182.1614
1000 365.5720 77.8054
1001 100.7602 227.1539
1002 197.1492 401.2682
1003 100.3611 337.4085
1004 295.6797 373.0567
1005 128.0347 290.3919
1006 280.6972 307.1934
1007 254.6415 392.2598
1008 405.8861 99.8957
1009 313.2973 205.2300
1010 256.4113 90.2405
1011 130.6724 442.8261
1012 144.6731 425.8244
1013 303.3970 20.1563
1014 301.7380 317.3605
1015 165.6713 418.2706
1016 146.0812 76.9926
1017 381.1562 237.9884
1018 53.9773 415.7938
1019 190.6594 18.5778
1020 257.8661 311.2894
1021 271.4677 116.6194
1022 51.4112 418.4275
1023 411.3303 435.5642
1024 193.8506 425.2015
1025 166.9344 198.6891
1026 270.8233 397.5562
1027 319.7795 390.0162
1028 165.8184 124.0401
1029 337.8899 383.9920
1030 296.2941 19.2103
1031 205.7654 252.2530
1032 184.8656 93.1028
1033 315.1260 53.9792
1034 406.6738 36.8469
1035 323.3243 310.6765
1036 123.5942 132.6032
1037 267.6825 332.5754
1038 204.4291 32.2759
1039 35.7686 123.2263
1040 77.6924 226.2333
1041 119.6253 366.7471
1042 109.2187 124.0599
1043 118.1310 269.6060
1044 169.8494 405.0450
1045 271.7342 262.3413
1046 156.4785 94.9289
1047 262.3320 13.4653
1048 245.0137 400.0816
1049 1.2586 12.0279
1050 352.6314 401.4264
1051 331.5481 221.1746
1052 194.2959 423.6638
1053 334.9653 369.0504
1054 85.8904 446.5769
1055 206.5639 136.5003
1056 301.0694 355.0899
1057 139.6009 158.3410
1058 80.9173 201.4066
1059 143.1433 270.7147
1060 259.2934 401.5255
1061 419.6978 440.9003
1062 172.7922 356.6764
1063 312.6796 166.9459
1064 324.2958 168.0011
1065 434.2720 339.2179
1066 138.6618 96.6337
1067 93.5935 50.0162
1068 57.7288 138.3235
1069 40.6651 113.5566
1070 132.3427 116.1346
1071 272.0944 94.8315
1072 45.9184 22.6498
1073 159.1034 10.4020
1074 133.7289 442.7798
1075 183.1182 172.0000
1076 133.7121 150.3566
1077 199.2545 300.0129
1078 265.5403 89.8512
1079 303.9576 427.5657
1080 161.5145 364.0851
1081 370.5489 41.3800
1082 276.6071 166.3887
1083 103.2403 403.0950
1084 303.3149 425.0966
1085 236.1769 194.9873
1086 138.4441 261.5319
1087 108.8736 71.9956
1088 308.5827 443.8125
1089 380.3269 93.3057
1090 398.4027 424.6725
1091 95.6822 285.3152
1092 199.1332 258.6324
1093 141.1283 215.5785
1094 281.6934 93.7006
1095 315.7535 74.8729
1096 149.5000 90.7302
1097 196.6192 78.1866
1098 245.0257 361.2845
1099 117.4430 136.6171
1100 94.8500 29.1962
1101 85.1255 435.9635
1102 298.1080 404.4785
1103 105.5856 419.5414
1104 56.0860 445.0570
1105 316.1055 73.5856
1106 233.5443 155.2337
1107 356.6378 350.8201
1108 279.0416 310.4981
1109 117.6893 66.2523
1110 61.3078 378.6136
1111 274.8979 91.8099
1112 162.5831 91.7302
1113 405.3648 224.6410
1114 270.4662 250.1899
1115 307.7017 243.5565
1116 285.3586 42.9113
1117 274.0209 402.3158
1118 166.0569 105.7665
1119 110.7021 57.3314
1120 148.6757 406.3959
1121 399.7563 429.4542
1122 280.4123 397.9347
1123 113.2509 375.1204
1124 158.5845 288.9693
1125 346.3778 230.0620
1126 400.3393 40.5059
1127 294.1619 161.6581
1128 143.9977 145.4517
1129 156.3547 103.4007
1130 302.1151 331.8833
1131 217.4148 208.3873
1132 256.6597 38.4420
1133 122.6482 90.0614
1134 147.8137 302.9405
1135 269.6488 36.9546
1136 148.1514 393.4774
1137 67.6018 208.5817
1138 248.4015 201.3381
1139 202.1268 250.3917
1140 368.1627 381.7344
1141 160.2088 135.0586
1142 240.5524 299.5952
1143 77.8719 237.5770
1144 335.3455 105.8030
1145 438.5403 402.0793
1146 84.5659 369.9080
1147 98.3963 290.2963
1148 63.1435 393.1514
1149 251.4328 399.5957
1150 82.0806 320.9396
1151 162.7551 387.5866
1152 279.8284 311.0802
1153 237.4768 300.6301
1154 114.8287 264.7835
1155 383.2771 347.9409
1156 391.1243 67.8751
1157 321.9709 403.1772
1158 54.7221 401.0403
1159 58.4054 16.5163
1160 186.5806 382.9359
1161 333.6723 56.4813
1162 182.8097 130.9505
1163 422.0221 342.9825
1164 323.0861 68.8144
1165 413.2803 378.1322
1166 118.4399 385.6440
1167 81.3810 213.0546
1168 264.5995 3.9024
1169 394.3832 112.2163
1170 110.4426 263.0484
1171 389.8205 439.8263
1172 142.5880 273.3531
1173 162.7998 103.5547
1174 310.8259 274.6315
1175 156.7844 226.5986
1176 302.4141 361.9579
1177 305.5411 48.6051
1178 189.2205 352.6257
1179 342.5716 226.1848
1180 356.0596 432.6044
1181 54.7637 133.5234
1182 352.2268 273.6665
1183 339.0801 420.4418
1184 97.1634 47.1845
1185 323.2023 422.3867
1186 329.0512 304.3978
1187 197.5117 33.4833
1188 359.3828 117.8391
1189 404.1453 319.5057
1190 158.0620 33.0712
1191 348.5739 244.5660
1192 257.8780 134.5579
1193 281.9598 265.0487
1194 291.0980 23.0441
1195 428.1853 400.5413
1196 393.6456 436.0456
1197 59.9460 435.8422
1198 175.2966 346.0772
1199 183.1699 57.1269
1200 373.1233 350.5186
1201 294.2458 13.3581
1202 204.9895 12.6843
1203 31.9490 126.1426
1204 197.3821 205.5547
1205 194.0768 357.0042
1206 149.6704 302.6418
1207 214.4108 182.4896
1208 93.4154 108.0240
1209 394.3354 445.1771
1210 208.0984 171.9567
1211 244.5994 185.7287
1212 335.3154 69.3931
1213 378.2369 367.0970
1214 308.1790 308.7975
1215 161.6775 90.5469
1216 134.4751 39.9224
1217 290.0727 300.2806
1218 427.3499 287.7824
1219 446.9925 107.2407
1220 445.8743 427.8306
1221 106.2247 65.3993
1222 409.4097 174.9782
1223 91.1809 425.7992
1224 343.3342 167.7309
1225 307.4200 277.5784
1226 97.8326 156.8042
1227 160.8664 108.0596
1228 396.6921 440.1400
1229 117.4158 162.5486
1230 2.4027 408.5196
1231 173.9965 93.1352
1232 334.6755 87.3960
1233 446.1330 16.1587
1234 151.9493 286.8796
1235 267.9070 143.9915
1236 221.2083 398.3554
1237 318.6692 197.4838
1238 356.4184 434.3578
1239 94.5938 78.5756
1240 438.1615 399.4717
1241 203.5535 360.5703
1242 265.2101 357.7423
1243 333.0252 390.3548
1244 189.7802 352.5639
1245 230.2612 269.6950
1246 307.5674 57.7962
1247 289.7350 17.6101
1248 398.4882 416.1332
1249 409.2613 262.4191
1250 332.5993 368.5137
1251 16.2882 202.0065
1252 264.4962 52.2856
1253 258.7346 55.0239
1254 236.5848 303.9415
1255 341.1744 173.4716
1256 219.0914 83.6257
1257 295.5505 206.4074
1258 340.5214 31.8966
1259 312.1963 244.0226
1260 242.8617 106.5771
1261 126.8907 369.5969
1262 110.8102 121.4297
1263 286.7499 187.9130
1264 296.5721 6.1808
1265 146.2688 35.1986
1266 352.2469 153.3064
1267 82.5551 201.5880
1268 193.4265 254.6154
1269 268.0816 114.0878
1270 332.1718 309.5181
1271 358.2140 396.2833
1272 302.4003 361.8119
1273 364.0139 20.6494
1274 224.6689 201.7987
1275 46.9328 48.0201
1276 153.1538 97.8862
1277 396.4585 441.5646
1278 361.6630 61.6791
1279 295.9317 209.9969
1280 344.7202 263.2872
1281 33.8798 315.0492
1282 227.2311 234.8974
1283 266.2562 5.2207
1284 63.1381 127.8591
1285 149.5001 217.6749
1286 175.2391 41.7580
1287 194.7600 136.3126
1288 1.4107 18.2097
1289 262.9766 37.6456
1290 338.9345 155.3034
1291 155.7819 58.7659
1292 306.6917 237.9656
1293 296.3936 305.1307
1294 293.6717 370.7293
1295 154.5751 83.2068
1296 173.5045 71.3122
1297 336.4275 47.6452
1298 159.7452 276.2322
1299 267.4053 318.2692
1300 163.1986 17.7834
1301 140.9093 422.3702
1302 243.7513 26.8970
1303 346.8461 226.1828
1304 317.9563 320.3767
1305 324.3392 400.0624
1306 162.4862 325.1090
1307 153.2485 371.3169
1308 66.8088 132.8755
1309 280.3025 377.8587
1310 158.8572 38.7647
1311 139.1467 408.6903
1312 229.9450 229.6825
1313 297.3316 378.5006
1314 38.6457 186.5106
1315 98.1200 281.3121
1316 335.8024 220.8614
1317 313.1373 336.9524
1318 303.3288 38.6623
1319 161.7518 30.8119
1320 85.9457 99.3129
1321 153.8585 68.1317
1322 21.7050 401.7420
1323 337.6777 89.2523
1324 355.8730 437.1689
1325 66.0536 131.7175
1326 331.4755 76.8491
1327 306.3834 365.1683
1328 119.8364 290.5489
1329 222.1892 209.7204
1330 309.5111 232.6043
1331 104.4609 329.8287
1332 344.8296 92.7094
1333 298.1054 445.8389
1334 150.6710 437.6970
1335 232.3630 285.8793
1336 103.7254 83.1126
1337 252.4078 300.8864
1338 78.0472 35.9614
1339 297.6792 16.6314
1340 278.2706 102.2488
1341 337.9421 191.2983
1342 414.7755 399.3931
1343 93.1393 334.0107
1344 304.5443 342.9758
1345 63.3691 171.3572
1346 260.3441 134.5205
1347 269.4407 144.8799
1348 128.5055 442.5078
1349 134.1384 21.9827
1350 210.2500 399.0734
1351 86.6631 243.5954
1352 189.4151 178.4222
1353 362.7851 332.1957
1354 251.8203 204.6487
1355 250.4190 401.4580
1356 94.2566 410.7521
1357 441.5129 168.3209
1358 141.5961 109.9957
1359 197.4353 250.9207
1360 444.3450 413.0547
1361 22.2042 87.4187
1362 98.2196 267.0002
1363 103.9150 273.8439
1364 298.7423 337.1678
1365 332.1204 57.0676
1366 287.7240 326.9288
1367 412.4305 412.1191
1368 393.5124 75.3488
1369 329.3748 95.6213
1370 59.7187 436.1106
1371 199.0356 76.9943
1372 262.2327 394.0538
1373 48.1899 207.0390
1374 99.3918 99.8024
1375 284.3412 400.4442
1376 70.6756 182.5089
1377 68.8614 216.8660
1378 355.0099 139.7780
1379 271.4607 250.9888
1380 331.4832 69.9869
1381 123.7546 153.2486
1382 131.5384 435.9921
1383 322.8575 102.0974
1384 114.7064 289.3456
1385 264.0070 126.4035
1386 386.2348 358.8189
1387 279.3373 57.8275
1388 188.0006 435.3078
1389 353.2412 186.2336
1390 153.0682 95.1871
1391 259.5555 35.2914
1392 120.4174 72.3769
1393 68.8759 218.9053
1394 82.4930 131.3302
1395 336.1068 383.9534
1396 115.0602 174.2977
1397 274.2981 99.3204
1398 123.1643 263.7832
1399 305.1225 318.6349
1400 109.1238 71.0705
1401 192.9094 71.1901
1402 267.8213 19.5446
1403 218.0779 339.9554
1404 258.2470 292.8596
1405 257.1688 198.8539
1406 243.0132 390.5118
1407 158.7694 373.9348
1408 253.9092 246.8196
1409 414.8882 399.1992
1410 153.2842 85.2890
1411 269.3771 50.3933
1412 317.5446 106.1599
1413 297.6912 28.1676
1414 258.3103 222.5033
1415 231.7964 422.7395
1416 300.6455 20.1558
1417 203.5470 54.0874
1418 420.3774 185.4135
1419 194.0398 421.2740
1420 157.9556 123.9536
1421 45.3523 213.0431
1422 302.1791 21.3922
1423 104.9478 64.1412
1424 395.7635 441.1087
1425 282.9813 433.3816
1426 338.7752 2.3426
1427 144.6277 428.1920
1428 116.1460 278.9381
1429 326.9176 399.8875
1430 204.6254 187.8083
1431 208.0690 216.3348
1432 240.3137 205.6356
1433 94.3560 294.1485
1434 333.5965 60.8144
1435 202.3821 16.1323
1436 155.1967 120.2375
1437 359.2999 316.6428
1438 366.6009 83.6961
1439 189.3625 297.8240
1440 232.2041 435.4690
1441 274.8009 43.1802
1442 403.1099 296.8837
1443 156.3429 181.6839
1444 368.0253 399.6900
1445 441.3161 74.0557
1446 332.6098 307.2408
1447 363.3868 387.0806
1448 281.1472 425.2980
1449 146.0898 302.9108
1450 52.0060 209.4839
1451 284.1232 263.3077
1452 71.9261 400.1617
1453 86.9658 239.2058
1454 267.7416 16.5467
1455 145.8845 420.5540
1456 301.5346 305.1955
1457 334.1662 298.9165
1458 296.3278 88.3721
1459 146.7598 290.3388
1460 218.9521 154.7379
1461 97.5974 286.8809
1462 272.0496 48.2571
1463 301.4650 289.2270
1464 350.7439 446.9192
1465 305.4238 24.3421
1466 135.9616 438.4449
1467 365.4890 160.3516
1468 285.9095 400.5690
1469 298.7622 362.8118
1470 225.3418 237.4337
1471 260.8485 340.3633
1472 429.7939 402.9410
1473 181.6232 159.7416
1474 149.8051 127.8450
1475 201.3951 294.0513
1476 166.4019 374.6738
1477 16.4504 353.7490
1478 168.3570 369.6347
1479 335.1864 176.7494
1480 371.5457 378.2041
1481 283.2919 53.7486
1482 145.4826 228.2160
1483 173.9673 3.7151
1484 168.9571 126.4271
1485 329.4751 142.8980
1486 226.5250 155.7073
1487 146.2522 310.4467
1488 92.1234 152.2060
1489 32.0009 184.0393
1490 329.9773 95.2424
1491 234.6633 145.8391
1492 256.5507 92.1531
1493 222.7281 35.6003
1494 100.7313 256.7697
1495 295.9754 294.5736
1496 294.3416 264.6485
1497 170.0684 192.8974
1498 147.1194 148.3278
1499 53.8157 398.5973
1500 336.3936 217.4734
1501 320.8545 200.3400
1502 166.8696 14.0881
1503 342.7768 132.8475
1504 226.1818 148.4303
1505 297.1655 156.7066
1506 319.5353 243.6353
1507 225.1965 223.2117
1508 221.0415 258.3221
1509 203.5597 354.8579
1510 335.6669 376.4354
1511 186.9531 328.7192
1512 384.9302 429.5276
1513 200.2589 10.0528
1514 314.7261 81.1213
1515 200.3028 4.5325
1516 250.5644 283.6006
1517 147.1663 409.3797
1518 319.6172 97.9698
1519 435.7276 418.9226
1520 148.7622 30.5917
1521 301.1920 421.6667
1522 346.6234 136.6025
1523 273.4898 46.5287
1524 68.3344 204.5193
1525 157.1976 102.8052
1526 102.1858 112.0850
1527 58.4362 120.6583
1528 365.4377 371.2768
1529 350.5582 225.3470
1530 260.9329 121.9226
1531 278.5024 259.3279
1532 341.7371 326.0367
1533 316.4748 107.3363
1534 213.9205 164.0120
1535 168.5528 54.7407
1536 232.4850 76.0854
1537 84.9725 301.5180
1538 276.6142 76.2366
1539 170.4835 220.4291
1540 311.0749 320.1062
1541 294.8375 48.2398
1542 261.1950 237.5049
1543 144.7687 102.0619
1544 353.5768 432.1192
1545 58.0365 203.0527
1546 173.8342 373.1180
1547 257.0452 230.4379
1548 274.8440 22.2624
1549 131.4217 274.0399
1550 92.4491 428.5776
1551 111.5709 255.3324
1552 226.3155 379.1066
1553 369.3668 404.0995
1554 317.7666 92.9663
1555 218.9701 87.8651
1556 8.6008 260.7009
1557 76.2852 163.6308
1558 287.4556 388.4820
1559 419.7578 409.2819
1560 240.3180 137.9246
1561 277.0562 95.4856
1562 392.9128 361.6104
1563 245.5464 108.2497
1564 442.3433 380.8520
1565 64.5592 170.5147
1566 187.0996 294.0160
1567 179.9637 44.3770
1568 296.6032 267.0797
1569 290.6831 185.9326
1570 164.5757 247.1261
1571 274.5817 71.7663
1572 305.4064 339.8798
1573 382.6487 397.8992
1574 83.6235 89.1313
1575 194.3097 44.2018
1576 163.9088 13.7604
1577 92.6764 280.3010
1578 20.1840 258.7565
1579 121.4742 229.2258
1580 60.6166 94.0403
1581 94.3262 153.4686
1582 212.1480 251.9847
1583 342.2091 208.1304
1584 135.2035 442.7691
1585 290.4255 59.5654
1586 409.0210 309.0344
1587 209.4458 159.8167
1588 264.8852 172.0867
1589 410.5384 327.9132
1590 304.3880 307.8296
1591 325.1337 443.9354
1592 295.7514 56.9413
1593 289.6766 47.3634
1594 155.9382 332.2756
1595 340.3322 242.7008
1596 153.7653 108.9294
1597 388.2048 37.7980
1598 203.7385 40.0638
1599 48.3872 408.2828
1600 154.3045 80.9829
1601 367.6428 125.7177
1602 152.9766 92.3772
1603 93.8018 138.4345
1604 437.8695 33.1807
1605 335.9477 217.2188
1606 179.3262 33.7562
1607 229.3938 370.6082
1608 277.4446 94.7424
1609 160.2283 226.0585
1610 237.2999 403.4743
1611 360.1680 285.3548
1612 165.4000 223.0574
1613 130.5833 126.8843
1614 255.1517 129.5978
1615 181.6647 295.4193
1616 351.7011 444.4107
1617 290.5046 291.0074
1618 317.6917 233.6613
1619 155.0384 336.3683
1620 164.9790 193.4207
1621 113.5019 30.9099
1622 242.7173 235.5821
1623 338.7978 430.8644
1624 148.4569 74.4751
1625 43.3861 306.9667
1626 276.6972 83.0832
1627 189.8630 224.4806
1628 291.0688 44.5497
1629 368.4172 184.8777
1630 306.2040 349.8265
1631 121.5577 135.0546
1632 111.9718 293.5126
1633 160.2909 368.4694
1634 444.8579 418.3049
1635 338.1927 94.1291
1636 14.2979 157.7800
1637 285.4716 65.2275
1638 79.1662 444.3327
1639 434.9399 418.3430
1640 148.9881 226.4852
1641 284.1792 389.8911
1642 247.4604 218.7097
1643 258.9837 267.0502
1644 304.0967 41.7205
1645 175.2818 349.1843
1646 229.0394 56.0218
1647 232.7745 382.1344
1648 228.4677 362.6059
1649 272.4284 320.0271
1650 194.7835 19.0105
1651 269.7619 118.8933
1652 239.4328 104.5355
1653 105.4770 140.3892
1654 153.8874 41.8939
1655 286.3358 422.6151
1656 98.9269 232.9621
1657 217.5090 119.4528
1658 364.2787 155.9589
1659 146.1428 183.5798
1660 269.2826 254.2790
1661 220.4050 216.9988
1662 183.0550 416.5785
1663 389.0826 208.1545
1664 44.4396 444.5105
1665 186.2588 393.3165
1666 140.0870 86.3032
1667 108.9666 420.9447
1668 157.3349 52.5709
1669 333.9096 378.0062
1670 297.8107 148.9484
1671 349.0913 402.1614
1672 354.9607 399.5375
1673 169.0142 373.2576
1674 362.4499 365.6929
1675 87.7332 119.9954
1676 247.2875 38.5382
1677 326.5333 158.4056
1678 287.1692 73.9775
1679 330.8533 309.4983
1680 292.6032 134.2273
1681 337.5438 437.6950
1682 159.5152 279.9903
1683 379.6113 380.3710
1684 146.7722 58.1705
1685 263.3845 397.3470
1686 222.4318 417.7818
1687 300.4842 204.7940
1688 269.5765 257.3421
1689 199.8100 354.2383
1690 99.2244 74.5045
1691 90.2608 211.0091
1692 268.6483 156.5111
1693 189.4455 63.9670
1694 99.5712 143.8634
1695 240.1395 33.5692
1696 182.8680 14.5831
1697 133.7180 59.3720
1698 375.0924 432.4579
1699 185.3945 230.8671
1700 391.2440 433.9667
1701 50.9581 175.2476
1702 338.3481 121.8956
1703 251.9666 212.4434
1704 335.3210 178.5261
1705 181.6878 48.2735
1706 136.7365 279.0517
1707 322.0493 88.3863
1708 314.3535 264.3156
1709 173.4910 285.3207
1710 235.1923 65.3095
1711 279.9749 30.4111
1712 426.4447 361.5765
1713 132.9833 190.2416
1714 166.6813 29.7160
1715 45.6073 445.0886
1716 67.6769 29.0641
1717 334.5961 309.7396
1718 356.2110 440.8416
1719 162.0304 96.8438
1720 329.4603 61.2176
1721 109.1338 54.9533
1722 287.0727 118.1991
1723 245.3478 46.6202
1724 227.5448 307.1256
1725 74.2897 31.2388
1726 351.2135 213.4111
1727 345.7040 445.2175
1728 122.3667 377.3909
1729 111.9765 262.9547
1730 314.8001 119.2417
1731 310.0680 267.3169
1732 73.2668 221.5059
1733 194.7777 171.8583
1734 262.8449 57.3597
1735 251.6872 405.3128
1736 275.0609 184.7016
1737 153.0098 81.4092
1738 136.3294 143.6934
1739 326.7662 164.3041
1740 111.8116 383.2939
1741 407.4463 337.7270
1742 347.6929 356.9874
1743 205.2252 6.6623
1744 362.6097 165.9151
1745 354.1564 201.7518
1746 389.5683 10.2747
1747 165.4744 103.3338
1748 401.5793 351.8890
1749 358.5693 59.6317
1750 153.5187 224.0512
1751 257.2329 88.4920
1752 44.3102 7.1818
1753 64.5041 97.3228
1754 355.2581 437.4640
1755 94.1333 371.9277
1756 213.8677 431.7076
1757 59.1062 205.7759
1758 307.8080 49.7678
1759 292.1140 229.6439
1760 155.8343 187.5774
1761 283.6464 390.4584
1762 177.5287 45.0344
1763 103.6390 205.0814
1764 315.4350 64.2927
1765 182.5454 126.1334
1766 412.6916 339.7950
1767 81.1634 199.1043
1768 279.1455 146.8771
1769 316.5282 154.4673
1770 433.1067 189.6496
1771 330.8680 363.8282
1772 161.6261 407.0753
1773 354.1124 429.0493
1774 223.2575 364.1357
1775 54.2600 123.3851
1776 24.9430 305.6104
1777 340.8350 177.7104
1778 281.1125 101.7359
1779 67.2751 389.6391
1780 195.3410 20.9977
1781 205.2636 410.2791
1782 89.9307 191.0246
1783 399.6967 276.7253
1784 232.8364 290.9744
1785 156.9756 408.0653
1786 248.8218 276.6463
1787 267.6473 261.1283
1788 355.6502 32.9825
1789 234.9118 217.4391
1790 326.0399 64.3623
1791 415.8264 339.7015
1792 28.4593 215.0551
1793 252.4269 300.4690
1794 306.9286 21.6411
1795 75.3117 40.5253
1796 425.0661 326.9726
1797 27.3601 35.4779
1798 282.3553 34.6825
1799 39.6622 7.7153
1800 109.2681 430.3157
1801 418.1253 339.6555
1802 209.0398 137.5977
1803 161.8697 116.8908
1804 70.4490 136.4593
1805 231.0770 359.6708
1806 220.8213 291.2447
1807 394.4213 77.8388
1808 332.8771 73.2432
1809 220.5506 45.1925
1810 65.1019 291.9111
1811 134.8205 354.7600
1812 115.0488 105.8437
1813 304.4380 11.3424
1814 40.5465 39.0914
1815 315.7566 434.5824
1816 390.1866 115.1882
1817 321.1842 356.0570
1818 166.5878 268.8403
1819 127.0175 149.0490
1820 144.5728 85.8195
1821 109.3267 54.3496
1822 62.5963 262.2742
1823 230.0266 359.7352
1824 129.6256 281.5808
1825 178.7417 222.6752
1826 429.2059 21.3525
1827 398.1261 434.1299
1828 329.6762 369.8586
1829 27.9627 115.6283
1830 162.1841 439.1057
1831 180.8129 255.5788
1832 70.6183 245.7815
1833 223.7033 345.8345
1834 122.0562 376.7475
1835 93.8509 289.2861
1836 268.6404 56.3142
1837 264.9580 131.0334
1838 145.5798 419.1665
1839 287.7122 91.1759
1840 75.2354 145.4944
1841 332.9148 174.2117
1842 317.1442 178.7590
1843 418.5006 260.9118
1844 443.1466 424.6459
1845 336.2329 96.1568
1846 130.6834 54.5937
1847 157.7548 82.3095
1848 316.4480 405.4055
1849 234.9841 282.2922
1850 262.2948 112.3545
1851 93.5646 378.2523
1852 145.9153 397.2657
1853 202.8958 391.1035
1854 101.6566 416.9070
1855 335.1687 100.9683
1856 135.4529 349.9457
1857 269.6768 190.3016
1858 283.1883 389.3037
1859 424.0930 334.1439
1860 175.1047 360.4229
1861 334.7956 288.1414
1862 98.1303 75.6434
1863 207.1972 228.0976
1864 83.1668 441.9237
1865 350.8215 422.3541
1866 242.6558 22.5373
1867 162.6771 70.6827
1868 371.6287 57.2661
1869 186.0390 333.4556
1870 366.8910 378.5695
1871 440.8324 87.9916
1872 233.1636 212.6918
1873 443.6743 388.9800
1874 225.9856 337.6867
1875 149.2436 227.7986
1876 170.1070 249.7807
1877 231.9102 213.3828
1878 313.6306 116.4301
1879 301.4378 236.3104
1880 193.7621 305.9362
1881 246.9408 401.1748
1882 149.8747 276.7374
1883 195.2528 352.0673
1884 254.2680 68.9122
1885 136.6332 191.7211
1886 211.2572 5.7194
1887 346.0281 98.3753
1888 302.6268 333.1461
1889 393.8230 443.2350
1890 292.6523 45.4052
1891 60.5960 158.1075
1892 173.0169 370.9096
1893 294.2696 84.8197
1894 243.9994 232.2114
1895 297.2652 337.6629
1896 276.9654 262.9158
1897 417.5029 78.7951
1898 148.1357 138.9774
1899 154.9644 363.1637
1900 171.2994 232.1002
1901 19.2717 3.8160
1902 188.3783 352.0884
1903 435.3422 18.9814
1904 141.6297 344.4162
1905 113.1665 84.9862
1906 394.8208 430.2815
1907 164.0701 143.0566
1908 131.1204 127.5808
1909 153.9288 64.4967
1910 231.8429 119.4459
1911 209.7086 402.7319
1912 298.1740 445.3612
1913 226.6373 143.0707
1914 436.3615 183.5348
1915 400.9962 330.4745
1916 201.8161 405.4321
1917 285.7964 250.5954
1918 198.8866 153.4109
1919 434.6043 163.6300
1920 157.4174 310.1443
1921 339.0936 1.0167
1922 314.8735 264.2365
1923 164.2115 138.7360
1924 327.3200 367.5060
1925 183.1625 43.9597
1926 94.8516 248.8638
1927 301.4068 201.7624
1928 124.1439 280.0086
1929 148.0200 32.5866
1930 295.4554 243.5180
1931 179.0075 235.4227
1932 413.7181 234.4427
1933 112.7322 256.2330
1934 320.8131 298.5884
1935 366.2108 372.2367
1936 325.6280 106.8299
1937 64.4156 382.2583
1938 232.8670 209.6693
1939 6.4481 37.4879
1940 204.2043 29.6268
1941 59.3587 130.9956
1942 301.4802 363.4859
1943 289.5659 319.9168
1944 152.8008 365.4511
1945 64.7187 217.5862
1946 147.4924 179.1923
1947 324.4639 63.2458
1948 313.9148 127.3354
1949 362.9523 175.5331
1950 260.6315 41.5429
1951 153.1294 90.3758
1952 204.0991 253.6230
1953 428.4469 338.7780
1954 133.2205 446.1646
1955 87.4063 421.9266
1956 164.7104 280.4189
1957 295.5173 168.0842
1958 134.9846 276.6664
1959 399.2854 363.5858
1960 424.1095 52.9658
1961 214.1748 162.6480
1962 285.2455 388.7176
1963 71.7768 150.6734
1964 247.6145 239.8925
1965 335.0786 247.3309
1966 290.2483 77.9880
1967 72.3894 141.7326
1968 89.6847 130.2121
1969 234.2390 14.2813
1970 224.4111 13.2343
1971 27.0197 385.8794
1972 368.9656 107.3416
1973 205.3385 217.0071
1974 57.6803 117.8254
1975 51.1466 424.1597
1976 132.7901 103.6163
1977 210.0449 173.6225
1978 148.3089 401.3687
1979 261.7697 389.8109
1980 152.4004 78.9472
1981 301.4065 371.7718
1982 172.4839 189.8975
1983 309.9078 202.0874
1984 262.9365 58.8255
1985 200.7913 38.2009
1986 298.8051 334.8501
1987 296.2892 208.9523
1988 206.0499 177.1499
1989 264.5376 335.5758
1990 328.6452 354.0170
1991 75.9604 68.0446
1992 274.1431 259.0140
1993 149.5669 59.9323
1994 138.6659 347.8227
1995 146.0133 289.5420
1996 118.4596 430.4990
1997 301.0722 33.6844
1998 295.5032 28.7651
1999 112.4853 111.1494
EOF
