NAME: sti
TYPE: TSP
DIMENSION: 1000
EDGE_WEIGHT_TYPE: EUC_2D
NODE_COORD_SECTION
0 561.1851 346.5419
1 629.8729 744.7322
2 226.8066 567.6588
3 437.6923 432.8492
4 654.2497 252.4894
5 652.2212 252.9877
6 147.9441 151.0394
7 642.7056 691.9252
8 183.1806 434.5679
9 440.9155 532.0339
10 122.6974 81.2973
11 399.9244 752.9711
12 605.9443 665.4742
13 179.8620 293.8445
14 498.3191 276.8289
15 467.0370 277.5963
16 396.2300 327.1206
17 167.0770 390.6963
18 224.3399 362.7248
19 193.0654 324.3153
20 266.5395 439.7907
21 253.3188 233.6259
22 357.8860 324.6159
23 504.2330 344.0244
24 510.8701 368.0213
25 127.8747 633.5289
26 503.9391 286.7988
27 262.9979 386.3507
28 326.7672 428.4019
29 144.4799 134.6275
30 250.8737 437.9841
31 645.7683 269.4178
32 550.4214 157.7376
33 181.2388 744.1105
34 466.3546 750.2872
35 111.2963 651.2336
36 459.0421 327.0179
37 149.9877 187.4278
38 291.3843 495.6796
39 280.2183 364.9500
40 546.7863 214.0894
41 242.4176 380.8791
42 633.9447 107.4674
43 324.6134 725.1670
44 197.9912 312.2317
45 338.9427 472.6496
46 462.6077 329.5127
47 254.2307 388.1765
48 493.2205 398.1864
49 645.7796 277.3501
50 293.0578 752.9691
51 538.8838 624.9278
52 481.9949 740.1739
53 312.3962 715.7582
54 232.6960 432.1539
55 232.8158 731.2244
56 548.2238 177.5370
57 494.5929 284.5801
58 407.0915 131.8775
59 437.2656 333.1295
60 490.8887 350.9557
61 197.8621 317.8095
62 564.6552 663.5509
63 216.0870 342.4085
64 517.3727 320.2598
65 224.7234 397.4959
66 54.0810 235.2202
67 170.6833 646.0761
68 550.8512 165.4951
69 587.4806 760.5924
70 164.8247 623.3478
71 166.6780 286.5657
72 569.2670 39.8786
73 383.7974 656.6585
74 504.8506 530.8673
75 505.7084 562.8370
76 208.6975 622.6801
77 368.6186 165.7527
78 480.1586 342.8809
79 658.8718 207.0292
80 190.8258 689.1289
81 393.3351 444.7435
82 183.1608 335.8180
83 320.8321 156.5075
84 327.0064 329.2870
85 407.6169 333.9812
86 434.6318 563.2598
87 478.6340 453.5400
88 191.7798 711.1070
89 259.7610 373.5413
90 554.9630 211.3419
91 301.6326 540.9320
92 427.1025 610.9372
93 303.6879 405.0678
94 188.3010 622.7082
95 543.0674 379.5822
96 237.3459 389.6209
97 178.0457 361.8715
98 206.9735 89.9689
99 660.7497 198.1301
100 431.7583 101.0246
101 205.0221 452.3236
102 275.4886 330.7704
103 442.6833 384.4459
104 235.2736 724.9971
105 236.4262 308.4514
106 426.1636 356.7948
107 510.6937 602.2208
108 219.0824 300.6805
109 403.6545 167.2733
110 488.9509 323.1511
111 158.4323 259.9436
112 459.4197 735.6385
113 590.3976 650.2742
114 360.9840 449.4093
115 48.8941 697.2300
116 177.2131 647.0311
117 627.6517 278.3685
118 179.8644 714.4732
119 559.9682 395.1855
120 177.8686 650.7766
121 534.7709 715.8448
122 321.7610 331.6262
123 548.1312 201.0325
124 549.9208 299.6167
125 567.7965 360.4815
126 99.1173 658.1252
127 191.6856 687.4303
128 586.2005 42.4916
129 231.0642 385.5820
130 252.2690 358.7976
131 274.3104 297.4552
132 152.0116 212.0724
133 56.3925 337.4799
134 160.6000 742.2917
135 533.6950 332.8601
136 141.7799 388.0396
137 723.4805 524.1049
138 163.2420 344.9867
139 269.1425 753.4989
140 325.6182 749.7025
141 237.5596 309.0098
142 128.3265 381.5177
143 466.0879 326.3506
144 193.0332 322.0786
145 80.3969 113.1327
146 252.5675 438.6895
147 476.8006 382.2002
148 322.1675 144.1046
149 558.6364 319.7065
150 409.0316 724.9362
151 456.0520 304.5413
152 513.7091 239.8710
153 442.7141 378.8017
154 261.3395 760.8148
155 439.0801 305.8948
156 363.5476 476.8173
157 525.4523 611.6436
158 527.5264 303.7316
159 431.0816 561.0604
160 198.2471 345.1595
161 490.8718 448.2192
162 369.9759 449.3369
163 244.1821 394.7897
164 432.6587 179.4982
165 562.5554 667.7192
166 204.2285 332.9963
167 620.9748 278.6503
168 544.1995 121.6802
169 528.0722 426.0307
170 493.2577 483.4626
171 479.8683 74.7272
172 486.7427 385.4255
173 227.3459 299.3710
174 469.9876 461.0401
175 511.8670 272.5787
176 502.4386 505.7253
177 210.4867 350.8734
178 254.9007 739.4217
179 220.2768 231.5924
180 606.9124 337.2107
181 473.6230 205.6316
182 390.7331 732.1316
183 496.7158 702.9090
184 528.1797 311.2375
185 324.9714 471.1810
186 507.8544 657.4923
187 232.2472 402.8707
188 531.4453 391.5148
189 271.3592 305.5930
190 435.1635 182.3911
191 366.9694 716.2581
192 188.6567 718.3252
193 340.7735 449.1309
194 280.9698 337.4538
195 214.2361 340.0735
196 225.1698 558.5198
197 359.3370 716.8289
198 94.4309 711.2487
199 147.6171 628.7068
200 479.1670 458.1676
201 424.0367 173.7364
202 529.6638 259.4746
203 188.8442 717.8057
204 384.5854 436.8683
205 544.2058 49.1119
206 73.2697 191.0571
207 405.5312 472.9366
208 576.0393 38.1221
209 529.4522 258.9339
210 422.3162 399.5072
211 444.0416 507.1483
212 483.9866 466.9651
213 238.0049 298.9518
214 500.6391 538.8679
215 501.4547 303.5156
216 446.4888 333.6669
217 223.1397 589.0300
218 261.3079 465.7047
219 568.2019 677.6734
220 295.9699 470.0939
221 303.6726 411.4438
222 79.8681 183.1771
223 193.6926 345.8381
224 516.9446 314.6832
225 225.4972 306.6178
226 444.8689 753.5706
227 535.0304 351.9309
228 496.6895 713.6765
229 324.2157 448.6589
230 127.3939 641.6512
231 473.1066 382.6578
232 239.9994 416.0482
233 291.9772 379.4069
234 185.8708 284.7824
235 502.5670 552.7384
236 506.8785 320.4041
237 139.3270 87.6676
238 68.8078 462.7623
239 161.7978 274.4356
240 175.8178 741.1202
241 147.5445 746.0058
242 183.3246 728.3665
243 506.3962 345.6955
244 541.3886 70.4487
245 541.2375 734.3733
246 222.2273 361.0732
247 264.6034 751.6682
248 537.6195 749.4635
249 561.3798 680.8633
250 620.5191 324.4792
251 501.0256 349.3412
252 228.3802 679.3988
253 179.5802 331.5336
254 55.6079 269.7649
255 181.8130 403.7181
256 192.9555 739.0182
257 17.1958 515.0076
258 499.6475 412.8980
259 493.2435 186.9270
260 414.0603 440.9344
261 577.3516 762.1014
262 151.4859 234.2568
263 502.2849 387.3073
264 498.8030 702.5392
265 505.3113 580.6103
266 370.7162 516.2726
267 349.4135 524.1219
268 561.1811 342.6811
269 500.1814 324.5252
270 97.7090 652.1069
271 369.5673 652.2566
272 540.9629 692.4835
273 337.8060 727.5502
274 279.0434 385.6332
275 238.9514 382.6016
276 310.8192 643.8842
277 426.2281 465.2120
278 369.6110 523.4110
279 510.8399 641.9000
280 534.3534 712.2369
281 188.7805 337.2748
282 217.8226 347.4237
283 283.6675 183.0955
284 173.6239 417.4518
285 79.5866 111.1680
286 288.7369 371.8628
287 220.2167 397.0957
288 501.0236 322.6420
289 469.6071 426.5467
290 540.2319 99.3909
291 80.5945 114.4968
292 557.9878 660.1364
293 193.6951 343.4043
294 15.4282 221.7176
295 204.6924 389.9913
296 423.1284 621.1041
297 506.7243 294.5784
298 365.2742 444.0794
299 549.0857 174.8942
300 543.1919 144.3234
301 279.2267 392.3550
302 249.0694 396.5191
303 469.0676 453.8004
304 304.2337 558.5400
305 539.8801 754.6509
306 199.5330 387.3243
307 516.3330 332.6695
308 155.9941 641.6618
309 623.5578 316.7307
310 197.4652 364.0601
311 660.5623 168.9576
312 138.1753 89.6900
313 408.2009 749.5358
314 98.0967 668.4504
315 503.7562 514.3476
316 189.6649 356.7954
317 649.9272 271.2346
318 264.3993 253.1524
319 508.9925 308.9270
320 485.5400 399.8420
321 232.5210 542.6236
322 374.0891 471.7553
323 337.1277 320.8261
324 316.7820 746.7087
325 229.0362 576.3031
326 507.2631 401.3601
327 257.0876 439.9370
328 564.5538 358.3055
329 511.3970 307.4472
330 89.6006 342.5157
331 223.9194 606.4970
332 613.9922 66.8514
333 149.2085 208.9306
334 144.1164 133.8174
335 519.3806 121.8780
336 630.8681 682.8059
337 500.7900 525.3047
338 117.0809 374.4030
339 272.1735 187.6950
340 221.3461 379.9756
341 498.6410 373.8225
342 643.1325 271.8620
343 503.9228 362.4871
344 245.6063 353.7648
345 268.1748 441.5026
346 377.3987 450.1464
347 546.3675 131.0682
348 594.0258 346.1352
349 397.9631 445.5495
350 507.9658 382.4325
351 544.3118 683.5061
352 486.4395 470.1057
353 194.6408 261.2160
354 658.6196 162.6502
355 233.1520 459.0613
356 540.7808 91.4598
357 480.0582 421.9949
358 131.0578 741.6950
359 486.9837 415.2392
360 456.1422 350.1214
361 222.3033 460.1010
362 262.6922 369.0623
363 248.5094 398.9967
364 363.8140 741.6152
365 99.3063 350.6239
366 532.5270 748.4261
367 191.1307 722.8866
368 481.4498 284.1946
369 660.3678 161.4141
370 269.8275 190.7336
371 623.7693 77.0110
372 661.4162 183.4813
373 239.0192 493.2598
374 318.7603 163.1371
375 482.5353 331.2152
376 414.0121 674.2412
377 441.9759 85.8015
378 607.9596 655.4879
379 185.1097 321.5480
380 236.4544 210.8444
381 234.0981 516.4882
382 306.1500 447.3247
383 538.7374 702.4760
384 616.3759 571.3945
385 164.4594 647.7850
386 197.8921 321.9553
387 471.7869 274.3154
388 308.6881 595.4376
389 583.2547 649.8409
390 253.0384 763.9018
391 183.4615 357.6372
392 230.6594 346.8951
393 311.6367 625.6139
394 539.0667 337.5184
395 226.1502 736.7374
396 223.5122 685.6802
397 280.0417 361.0848
398 510.7163 595.0721
399 227.0713 601.0121
400 52.9565 193.7375
401 489.3533 719.2965
402 284.3497 383.7747
403 503.6614 662.1852
404 610.1741 331.0984
405 383.6603 715.7644
406 526.2650 350.0209
407 598.0822 54.9679
408 233.2954 722.7692
409 437.6247 180.3819
410 505.2057 331.1214
411 476.6150 744.7746
412 541.6439 744.5303
413 491.0420 414.9685
414 371.7987 448.2928
415 489.9800 366.6019
416 474.5824 324.7481
417 409.8118 334.6565
418 460.1281 476.3383
419 210.9281 598.2246
420 505.3722 638.4321
421 135.4394 637.6129
422 432.9431 180.2407
423 191.1215 380.1975
424 353.8869 150.6458
425 506.2859 399.8159
426 521.8614 364.8465
427 345.9189 711.2522
428 478.7550 340.4605
429 53.8420 209.7285
430 256.7764 237.6562
431 508.1774 611.5450
432 299.9847 442.9374
433 553.0432 190.1648
434 422.1317 173.7260
435 354.8178 522.2135
436 371.5059 164.8407
437 168.7328 660.5422
438 505.5903 529.5084
439 302.2975 171.5650
440 306.6889 174.8733
441 570.6363 760.7611
442 530.1601 346.4616
443 539.0093 345.2467
444 508.7265 654.9918
445 478.0992 743.4015
446 430.8001 760.2040
447 424.5551 599.7331
448 263.6160 347.1880
449 173.3554 173.7838
450 153.5542 626.0052
451 499.7610 403.0353
452 206.7457 360.2025
453 187.9581 723.3679
454 151.3269 203.1489
455 430.3056 379.8767
456 540.9963 56.3683
457 251.4486 372.7221
458 333.8862 149.5930
459 662.3915 210.4126
460 476.6956 209.0032
461 487.6196 464.3555
462 424.7942 588.0930
463 170.5882 420.4810
464 297.6423 749.0649
465 98.5800 347.5615
466 438.5607 322.6035
467 99.6765 694.8050
468 177.2698 298.8250
469 510.4983 749.0771
470 612.0586 58.3342
471 397.7849 752.7077
472 650.7886 126.5173
473 358.4402 713.1475
474 198.3282 391.4340
475 594.0886 764.2206
476 315.5982 165.7357
477 473.9983 401.9331
478 274.6426 752.4212
479 262.6362 389.7857
480 337.1183 447.4099
481 368.8398 514.3838
482 255.5719 368.5878
483 355.1845 446.3622
484 474.3345 420.0262
485 391.0242 718.8317
486 700.2731 131.5181
487 519.2987 320.9407
488 505.2593 744.4297
489 647.8727 712.8419
490 482.1861 368.8026
491 299.4582 443.4830
492 448.1335 319.0806
493 611.7279 279.4965
494 565.4369 370.7295
495 241.7655 341.1589
496 227.6102 420.1354
497 375.7514 168.6570
498 281.9566 754.0690
499 454.0571 760.2822
500 347.2617 518.2470
501 265.9063 394.2495
502 561.2719 328.7594
503 222.4497 655.7767
504 237.0654 496.4876
505 648.0336 260.0627
506 318.9064 726.1392
507 507.5324 660.4111
508 412.3473 744.8998
509 508.0218 557.6638
510 625.9634 439.5602
511 459.9368 358.0523
512 246.4188 737.2602
513 634.7308 691.9813
514 333.2565 131.6542
515 138.1981 91.5653
516 281.4639 347.9720
517 97.6085 653.3495
518 213.1141 761.1512
519 203.2253 246.2510
520 457.8506 429.5612
521 471.5234 348.1148
522 399.8601 752.7228
523 316.0677 672.7078
524 562.5435 669.0817
525 253.4583 372.4847
526 481.1658 357.9457
527 622.8500 317.6690
528 338.4623 149.4118
529 502.6510 690.5454
530 591.0623 654.5125
531 547.8064 804.4592
532 255.0520 773.7863
533 248.2014 402.2586
534 161.1647 621.3302
535 500.7568 742.5194
536 188.2049 678.8778
537 457.8796 307.8706
538 231.2388 367.4512
539 224.9850 223.7720
540 155.0272 746.0652
541 344.4639 436.9092
542 209.5387 300.4978
543 334.1055 476.6568
544 292.8221 442.3804
545 459.7756 342.9645
546 479.2038 205.5233
547 325.2871 476.7929
548 278.5776 388.6346
549 169.7979 623.3960
550 260.9151 388.5330
551 94.1580 680.6959
552 498.7933 400.3168
553 246.8572 405.9061
554 90.2769 702.9835
555 477.1407 354.2020
556 504.1842 227.8940
557 90.6543 96.1521
558 221.4403 602.6153
559 311.0835 443.8824
560 356.8036 526.5052
561 270.9671 293.4178
562 129.9841 230.6679
563 338.6347 67.1660
564 456.8819 340.4275
565 528.1622 425.0126
566 478.5598 351.5274
567 496.7194 363.8903
568 102.0794 721.7315
569 563.1874 339.8582
570 245.8191 386.5408
571 419.7102 631.3144
572 515.4712 352.8216
573 295.4593 444.3578
574 500.4942 688.8282
575 318.3352 744.1738
576 206.7120 242.8260
577 409.1006 733.2399
578 254.1420 379.3479
579 556.4504 311.7488
580 475.6511 369.6209
581 560.3524 756.8414
582 429.4713 379.9791
583 421.6341 334.1263
584 360.6762 449.3251
585 524.6863 304.0696
586 547.1749 166.8557
587 660.2272 222.8370
588 149.2793 222.6429
589 44.6942 248.5127
590 510.3053 232.2126
591 471.0332 457.3039
592 502.6532 276.9383
593 223.8712 339.7661
594 235.7884 716.6650
595 548.2603 373.9072
596 336.6707 474.5604
597 437.1110 271.4471
598 477.4604 282.8646
599 646.5466 121.3804
600 436.9768 268.1107
601 545.4225 319.0420
602 61.7399 274.9181
603 77.2800 178.8583
604 53.2922 213.9108
605 192.7540 370.8049
606 221.0180 290.9628
607 214.7267 344.3048
608 545.8294 382.2815
609 516.8728 504.1126
610 287.7037 118.5407
611 166.0965 644.2419
612 378.0124 446.4688
613 410.3013 171.5984
614 92.2972 699.2999
615 387.7432 730.0481
616 657.9029 153.8523
617 244.6678 319.5932
618 174.8923 649.1853
619 520.0790 591.2395
620 620.7946 277.0347
621 506.5828 291.9954
622 528.8557 345.5214
623 184.0636 377.8314
624 301.5990 442.1149
625 279.0939 345.9096
626 464.6692 370.8293
627 505.8790 590.5718
628 547.5174 112.4304
629 460.3169 309.4346
630 367.7739 540.6019
631 362.8925 715.4434
632 445.6071 385.6313
633 532.5917 392.7026
634 663.2374 197.5124
635 268.1042 366.3845
636 175.4877 393.6522
637 507.9505 305.6007
638 252.7436 316.5063
639 481.6341 347.0709
640 138.2544 80.3619
641 457.4725 332.0456
642 505.1400 292.2768
643 189.9715 334.3313
644 52.4820 212.1961
645 191.6108 713.2807
646 240.2070 429.5166
647 349.0055 486.0077
648 560.2191 636.0367
649 245.1080 381.3389
650 293.8026 176.5720
651 153.5127 395.2935
652 481.9318 422.3970
653 428.0871 587.6171
654 204.1138 362.3452
655 448.5074 221.8742
656 516.4935 321.7023
657 537.9928 343.1315
658 258.2747 462.3946
659 200.4218 413.4110
660 164.9076 342.7140
661 561.6079 760.3094
662 259.8238 436.9551
663 500.8212 303.0016
664 371.6364 191.0511
665 154.2576 249.0595
666 173.6038 307.6866
667 438.1145 258.3838
668 626.4562 278.3691
669 211.1210 322.4189
670 59.7512 272.0710
671 233.0802 716.3548
672 309.9417 170.6686
673 142.6787 390.3619
674 427.5937 356.0101
675 294.6361 758.9133
676 149.6126 204.8737
677 201.7240 353.1206
678 285.9025 752.0664
679 225.5340 691.1421
680 413.0117 657.4220
681 525.2950 311.4860
682 193.5772 270.0437
683 488.1230 474.5586
684 249.3432 735.7292
685 169.6523 403.8456
686 492.6925 413.4299
687 435.6730 320.2754
688 195.3063 621.7890
689 436.4464 279.7984
690 83.8224 333.8576
691 429.9166 360.4310
692 227.3189 384.5822
693 503.3712 305.6011
694 661.7056 206.6884
695 379.3746 438.1669
696 358.4305 323.1426
697 484.8901 418.3459
698 655.1545 250.0254
699 167.6458 376.6369
700 173.3406 393.0717
701 654.4096 144.3112
702 495.6771 336.6058
703 152.3646 228.2179
704 147.9880 156.4540
705 571.6883 762.1406
706 475.4856 332.0275
707 183.5055 652.9640
708 434.3842 310.0390
709 348.0310 490.3880
710 520.1600 609.0234
711 490.7562 430.4585
712 216.2892 373.9001
713 533.1161 356.9559
714 191.3140 340.8884
715 313.6029 735.8267
716 572.9840 664.2884
717 402.9611 750.3895
718 450.3855 217.3404
719 429.5414 565.1541
720 191.5537 740.5417
721 270.7619 276.8336
722 325.4404 159.3023
723 225.2593 581.1946
724 214.0576 415.3424
725 99.2702 672.9664
726 549.5577 233.3473
727 160.5805 641.1392
728 513.4440 287.6262
729 154.4889 262.4018
730 613.9938 262.8803
731 614.6234 655.5694
732 342.6207 473.2013
733 260.3951 389.0395
734 504.4755 342.5430
735 371.2277 702.9640
736 491.9095 351.7221
737 170.5334 657.8700
738 208.1307 364.7905
739 458.1248 347.7942
740 474.2758 370.8771
741 500.9440 326.1488
742 520.4627 590.9810
743 479.4834 382.8635
744 500.5887 301.3753
745 399.2858 717.2032
746 271.7618 349.3865
747 424.5113 397.4923
748 235.5773 723.8656
749 288.9807 445.4076
750 644.8275 208.7645
751 543.5735 740.9560
752 365.2005 446.1093
753 218.8540 336.4391
754 212.8470 233.8931
755 225.0625 640.8835
756 295.4483 443.5104
757 247.6266 393.9264
758 407.0191 714.4768
759 145.6877 636.7227
760 523.6925 247.1344
761 463.2994 329.3587
762 91.8044 308.2788
763 307.2107 585.9574
764 643.0089 105.9978
765 414.6768 412.8285
766 221.2946 613.0143
767 154.7379 702.8341
768 224.7405 338.1429
769 602.7534 659.7689
770 466.6585 202.7661
771 556.8459 675.6136
772 240.0886 221.4876
773 93.0776 353.4075
774 576.4071 642.0660
775 516.3488 245.1110
776 267.8082 300.9477
777 303.0723 552.9551
778 228.5226 549.2996
779 172.0769 458.5006
780 296.7945 511.7071
781 226.0502 397.0729
782 238.4029 309.2953
783 225.2324 339.2810
784 483.8035 276.9292
785 535.4051 724.9061
786 172.3215 420.4764
787 566.2260 353.6405
788 279.9790 370.6035
789 481.3578 743.6478
790 525.1229 249.8887
791 173.5031 422.4493
792 482.5859 383.6248
793 186.0718 439.6826
794 539.2419 77.7140
795 492.8225 697.8040
796 184.5525 737.5202
797 420.1429 408.7753
798 724.2714 515.4967
799 365.2843 731.1338
800 367.6296 531.0543
801 548.7486 248.3176
802 170.0001 416.5111
803 432.0469 436.2762
804 200.7070 360.0627
805 218.8393 574.0038
806 210.2468 738.7409
807 181.3163 733.1019
808 251.3602 367.2704
809 457.8427 205.3133
810 554.7889 759.8919
811 631.4338 669.9099
812 662.3773 217.9641
813 385.0893 730.6870
814 314.4938 695.3876
815 144.6327 388.7039
816 320.0044 427.1670
817 293.7130 353.6664
818 64.9660 148.7610
819 255.9508 336.7025
820 579.2981 646.1054
821 547.7818 38.6441
822 523.0482 335.3601
823 222.9568 353.5004
824 176.4327 395.4577
825 316.2089 730.3687
826 281.3698 339.0524
827 464.7676 339.4165
828 505.8222 575.8503
829 495.2120 367.6574
830 438.4723 298.8802
831 510.2157 367.6778
832 49.6078 235.2953
833 547.1366 273.6516
834 240.7386 381.3156
835 505.6448 358.3951
836 109.7132 728.1992
837 490.8902 343.2874
838 239.3678 418.0581
839 488.1115 448.5159
840 345.2676 62.8355
841 407.0147 472.3791
842 512.3373 274.0193
843 524.1244 748.4136
844 151.4929 244.4043
845 468.5309 357.5951
846 549.0099 174.4641
847 428.9635 774.5190
848 295.6775 382.3119
849 443.7740 430.7729
850 7.5213 160.9760
851 309.1256 594.0169
852 619.7702 291.8072
853 535.1202 716.2656
854 496.0176 289.2933
855 483.7731 281.5180
856 187.3481 112.3717
857 249.0014 373.2998
858 267.6465 408.9742
859 349.8471 158.0236
860 159.8986 625.7832
861 119.7804 368.4580
862 562.3980 389.3029
863 469.0657 364.2282
864 560.2466 353.4841
865 278.7474 404.4738
866 52.0578 252.9578
867 505.9427 276.7852
868 92.9913 688.5445
869 186.9628 743.0756
870 466.3657 346.2254
871 556.1958 316.1408
872 460.6224 460.7813
873 165.5783 356.1470
874 141.8111 89.6360
875 151.3882 253.6741
876 228.2599 544.3452
877 251.9175 471.2905
878 544.4700 92.8901
879 242.7077 297.0622
880 208.1473 301.0078
881 347.6309 476.4477
882 113.1343 80.9579
883 59.5297 194.2419
884 481.5006 644.6796
885 628.0762 274.2747
886 405.8070 467.4597
887 168.5466 304.4328
888 63.0439 189.1657
889 633.4455 305.2092
890 304.0500 552.8436
891 646.9812 682.7931
892 504.8538 664.2420
893 591.9606 352.1969
894 371.9514 474.9948
895 476.7117 289.9811
896 470.5695 324.2595
897 645.4370 715.5936
898 612.0731 61.6223
899 65.9812 175.1901
900 621.7926 290.9079
901 541.9437 91.9601
902 472.5215 276.9773
903 523.7573 419.1617
904 269.4769 359.7183
905 228.2473 714.6406
906 587.6666 657.1627
907 206.5651 338.7716
908 273.4989 312.0121
909 241.0090 348.3570
910 317.9262 426.2287
911 539.6344 315.2221
912 206.3217 445.8480
913 220.7289 356.0954
914 508.4287 400.0292
915 255.4809 363.6624
916 622.1185 324.2889
917 152.3978 744.9195
918 524.9933 614.0449
919 153.7610 234.3717
920 90.3925 694.7543
921 564.9184 377.9509
922 98.5771 715.3571
923 418.7875 644.2510
924 273.5641 360.3586
925 110.6566 84.2404
926 189.1916 316.9182
927 513.1018 396.5060
928 365.2209 449.0389
929 524.0360 311.1752
930 218.8668 233.2825
931 414.9505 667.5816
932 433.4366 759.5801
933 246.5167 390.7588
934 544.2825 270.3531
935 459.8941 317.9465
936 117.8926 78.4194
937 409.7804 727.4763
938 550.4975 209.2047
939 213.5911 416.1861
940 204.3316 318.8550
941 495.2071 401.0712
942 423.0690 466.9408
943 174.5069 664.4094
944 227.8109 290.8358
945 144.3322 55.6936
946 445.7711 230.6547
947 636.1516 717.8759
948 231.5391 699.2825
949 728.4252 431.0376
950 435.1279 433.7655
951 331.0000 473.4166
952 266.5225 273.0546
953 486.9731 727.2261
954 494.3042 358.3039
955 220.2304 349.0015
956 162.7293 388.9668
957 148.2243 135.6630
958 196.7419 265.8484
959 427.4226 576.3029
960 407.3253 172.7126
961 206.8168 435.1816
962 526.3709 306.9019
963 532.8067 350.9849
964 364.7542 323.3932
965 557.5906 341.6610
966 510.0785 547.5445
967 479.7093 325.1673
968 558.7806 409.5838
969 432.9522 374.0424
970 463.2653 472.6016
971 307.2966 739.7144
972 220.7590 568.1025
973 227.5139 294.5089
974 42.3693 101.9329
975 462.8275 313.6972
976 327.7143 430.4617
977 315.9210 144.6946
978 481.7290 380.8617
979 432.2741 431.8071
980 166.1952 336.3453
981 184.3356 622.9785
982 153.8565 197.7012
983 316.7271 166.5621
984 429.9471 561.4963
985 264.3805 380.1630
986 352.7862 501.7344
987 110.3844 363.0252
988 213.8390 307.0114
989 581.7037 658.9703
990 166.4377 644.2350
991 444.7049 512.8171
992 448.5464 317.9670
993 175.0517 426.5048
994 246.7185 343.8626
995 661.1793 180.8000
996 240.5527 729.3966
997 441.1317 230.8653
998 494.1573 744.3098
999 163.2900 366.8714
EOF
